(written by ASE)

960 atoms
8 atom types

0.0      10.571999999999999  xlo xhi
0.0      17.620000000000001  ylo yhi
0.0                57.23854  zlo zhi

Atoms # atomic

     1   2                       0                       0                       0
     2   1                       0                   1.762      1.7619999999999996
     3   1                   1.762                       0      1.7619999999999996
     4   1                   1.762                   1.762                       0
     5   1                       0                       0      3.5239999999999991
     6   1                       0                   1.762      5.2859999999999996
     7   1                   1.762                       0      5.2859999999999996
     8   1                   1.762                   1.762      3.5239999999999991
     9   1                       0                       0                   7.048
    10   2                       0                   1.762      8.8100000000000005
    11   1                   1.762                       0      8.8100000000000005
    12   2                   1.762                   1.762                   7.048
    13   1                       0                       0      10.571999999999999
    14   1                       0                   1.762                  12.334
    15   1                   1.762                       0                  12.334
    16   3                   1.762                   1.762      10.571999999999999
    17   1                       0                       0                  14.096
    18   1                       0                   1.762      15.858000000000001
    19   2                   1.762                       0      15.858000000000001
    20   3                   1.762                   1.762                  14.096
    21   1                       0                       0      17.620000000000001
    22   1                       0                   1.762      19.382000000000001
    23   4                   1.762                       0      19.382000000000001
    24   1                   1.762                   1.762      17.620000000000001
    25   1                       0                       0      21.143999999999998
    26   4                       0                   1.762      22.905999999999999
    27   1                   1.762                       0      22.905999999999999
    28   1                   1.762                   1.762      21.143999999999998
    29   1                       0                       0      24.667999999999999
    30   1                       0                   1.762                   26.43
    31   2                   1.762                       0                   26.43
    32   1                   1.762                   1.762      24.667999999999999
    33   1                       0                   3.524                       0
    34   2                       0      5.2859999999999996      1.7619999999999996
    35   1                   1.762                   3.524      1.7619999999999996
    36   1                   1.762      5.2859999999999996                       0
    37   1                       0                   3.524      3.5239999999999991
    38   1                       0      5.2859999999999996      5.2859999999999996
    39   1                   1.762                   3.524      5.2859999999999996
    40   2                   1.762      5.2859999999999996      3.5239999999999991
    41   1                       0                   3.524                   7.048
    42   1                       0      5.2859999999999996      8.8100000000000005
    43   4                   1.762                   3.524      8.8100000000000005
    44   1                   1.762      5.2859999999999996                   7.048
    45   1                       0                   3.524      10.571999999999999
    46   1                       0      5.2859999999999996                  12.334
    47   4                   1.762                   3.524                  12.334
    48   1                   1.762      5.2859999999999996      10.571999999999999
    49   1                       0                   3.524                  14.096
    50   1                       0      5.2859999999999996      15.858000000000001
    51   1                   1.762                   3.524      15.858000000000001
    52   1                   1.762      5.2859999999999996                  14.096
    53   1                       0                   3.524      17.620000000000001
    54   1                       0      5.2859999999999996      19.382000000000001
    55   1                   1.762                   3.524      19.382000000000001
    56   2                   1.762      5.2859999999999996      17.620000000000001
    57   3                       0                   3.524      21.143999999999998
    58   6                       0      5.2859999999999996      22.905999999999999
    59   1                   1.762                   3.524      22.905999999999999
    60   1                   1.762      5.2859999999999996      21.143999999999998
    61   1                       0                   3.524      24.667999999999999
    62   1                       0      5.2859999999999996                   26.43
    63   1                   1.762                   3.524                   26.43
    64   2                   1.762      5.2859999999999996      24.667999999999999
    65   1                       0                   7.048                       0
    66   1                       0      8.8100000000000005      1.7619999999999996
    67   1                   1.762                   7.048      1.7619999999999996
    68   1                   1.762      8.8100000000000005                       0
    69   3                       0                   7.048      3.5239999999999991
    70   1                       0      8.8100000000000005      5.2859999999999996
    71   2                   1.762                   7.048      5.2859999999999996
    72   1                   1.762      8.8100000000000005      3.5239999999999991
    73   3                       0                   7.048                   7.048
    74   2                       0      8.8100000000000005      8.8100000000000005
    75   1                   1.762                   7.048      8.8100000000000005
    76   3                   1.762      8.8100000000000005                   7.048
    77   2                       0                   7.048      10.571999999999999
    78   2                       0      8.8100000000000005                  12.334
    79   3                   1.762                   7.048                  12.334
    80   3                   1.762      8.8100000000000005      10.571999999999999
    81   1                       0                   7.048                  14.096
    82   1                       0      8.8100000000000005      15.858000000000001
    83   3                   1.762                   7.048      15.858000000000001
    84   1                   1.762      8.8100000000000005                  14.096
    85   1                       0                   7.048      17.620000000000001
    86   1                       0      8.8100000000000005      19.382000000000001
    87   1                   1.762                   7.048      19.382000000000001
    88   1                   1.762      8.8100000000000005      17.620000000000001
    89   1                       0                   7.048      21.143999999999998
    90   1                       0      8.8100000000000005      22.905999999999999
    91   2                   1.762                   7.048      22.905999999999999
    92   1                   1.762      8.8100000000000005      21.143999999999998
    93   1                       0                   7.048      24.667999999999999
    94   2                       0      8.8100000000000005                   26.43
    95   1                   1.762                   7.048                   26.43
    96   1                   1.762      8.8100000000000005      24.667999999999999
    97   1                       0      10.571999999999999                       0
    98   1                       0                  12.334      1.7619999999999996
    99   1                   1.762      10.571999999999999      1.7619999999999996
   100   1                   1.762                  12.334                       0
   101   1                       0      10.571999999999999      3.5239999999999991
   102   3                       0                  12.334      5.2859999999999996
   103   1                   1.762      10.571999999999999      5.2859999999999996
   104   1                   1.762                  12.334      3.5239999999999991
   105   2                       0      10.571999999999999                   7.048
   106   1                       0                  12.334      8.8100000000000005
   107   1                   1.762      10.571999999999999      8.8100000000000005
   108   1                   1.762                  12.334                   7.048
   109   1                       0      10.571999999999999      10.571999999999999
   110   1                       0                  12.334                  12.334
   111   1                   1.762      10.571999999999999                  12.334
   112   1                   1.762                  12.334      10.571999999999999
   113   1                       0      10.571999999999999                  14.096
   114   3                       0                  12.334      15.858000000000001
   115   1                   1.762      10.571999999999999      15.858000000000001
   116   1                   1.762                  12.334                  14.096
   117   1                       0      10.571999999999999      17.620000000000001
   118   2                       0                  12.334      19.382000000000001
   119   1                   1.762      10.571999999999999      19.382000000000001
   120   1                   1.762                  12.334      17.620000000000001
   121   1                       0      10.571999999999999      21.143999999999998
   122   1                       0                  12.334      22.905999999999999
   123   1                   1.762      10.571999999999999      22.905999999999999
   124   1                   1.762                  12.334      21.143999999999998
   125   1                       0      10.571999999999999      24.667999999999999
   126   1                       0                  12.334                   26.43
   127   4                   1.762      10.571999999999999                   26.43
   128   1                   1.762                  12.334      24.667999999999999
   129   1                       0                  14.096                       0
   130   1                       0      15.858000000000001      1.7619999999999996
   131   1                   1.762                  14.096      1.7619999999999996
   132   5                   1.762      15.858000000000001                       0
   133   4                       0                  14.096      3.5239999999999991
   134   1                       0      15.858000000000001      5.2859999999999996
   135   1                   1.762                  14.096      5.2859999999999996
   136   1                   1.762      15.858000000000001      3.5239999999999991
   137   1                       0                  14.096                   7.048
   138   3                       0      15.858000000000001      8.8100000000000005
   139   1                   1.762                  14.096      8.8100000000000005
   140   1                   1.762      15.858000000000001                   7.048
   141   4                       0                  14.096      10.571999999999999
   142   1                       0      15.858000000000001                  12.334
   143   1                   1.762                  14.096                  12.334
   144   1                   1.762      15.858000000000001      10.571999999999999
   145   1                       0                  14.096                  14.096
   146   1                       0      15.858000000000001      15.858000000000001
   147   1                   1.762                  14.096      15.858000000000001
   148   1                   1.762      15.858000000000001                  14.096
   149   3                       0                  14.096      17.620000000000001
   150   1                       0      15.858000000000001      19.382000000000001
   151   1                   1.762                  14.096      19.382000000000001
   152   1                   1.762      15.858000000000001      17.620000000000001
   153   1                       0                  14.096      21.143999999999998
   154   3                       0      15.858000000000001      22.905999999999999
   155   3                   1.762                  14.096      22.905999999999999
   156   2                   1.762      15.858000000000001      21.143999999999998
   157   1                       0                  14.096      24.667999999999999
   158   1                       0      15.858000000000001                   26.43
   159   1                   1.762                  14.096                   26.43
   160   1                   1.762      15.858000000000001      24.667999999999999
   161   1                   3.524                       0                       0
   162   1                   3.524                   1.762      1.7619999999999996
   163   1      5.2859999999999996                       0      1.7619999999999996
   164   1      5.2859999999999996                   1.762                       0
   165   1                   3.524                       0      3.5239999999999991
   166   1                   3.524                   1.762      5.2859999999999996
   167   1      5.2859999999999996                       0      5.2859999999999996
   168   1      5.2859999999999996                   1.762      3.5239999999999991
   169   1                   3.524                       0                   7.048
   170   1                   3.524                   1.762      8.8100000000000005
   171   1      5.2859999999999996                       0      8.8100000000000005
   172   1      5.2859999999999996                   1.762                   7.048
   173   2                   3.524                       0      10.571999999999999
   174   2                   3.524                   1.762                  12.334
   175   1      5.2859999999999996                       0                  12.334
   176   3      5.2859999999999996                   1.762      10.571999999999999
   177   6                   3.524                       0                  14.096
   178   1                   3.524                   1.762      15.858000000000001
   179   1      5.2859999999999996                       0      15.858000000000001
   180   1      5.2859999999999996                   1.762                  14.096
   181   2                   3.524                       0      17.620000000000001
   182   1                   3.524                   1.762      19.382000000000001
   183   1      5.2859999999999996                       0      19.382000000000001
   184   1      5.2859999999999996                   1.762      17.620000000000001
   185   1                   3.524                       0      21.143999999999998
   186   2                   3.524                   1.762      22.905999999999999
   187   1      5.2859999999999996                       0      22.905999999999999
   188   1      5.2859999999999996                   1.762      21.143999999999998
   189   1                   3.524                       0      24.667999999999999
   190   1                   3.524                   1.762                   26.43
   191   1      5.2859999999999996                       0                   26.43
   192   1      5.2859999999999996                   1.762      24.667999999999999
   193   4                   3.524                   3.524                       0
   194   1                   3.524      5.2859999999999996      1.7619999999999996
   195   1      5.2859999999999996                   3.524      1.7619999999999996
   196   1      5.2859999999999996      5.2859999999999996                       0
   197   1                   3.524                   3.524      3.5239999999999991
   198   1                   3.524      5.2859999999999996      5.2859999999999996
   199   1      5.2859999999999996                   3.524      5.2859999999999996
   200   1      5.2859999999999996      5.2859999999999996      3.5239999999999991
   201   1                   3.524                   3.524                   7.048
   202   1                   3.524      5.2859999999999996      8.8100000000000005
   203   1      5.2859999999999996                   3.524      8.8100000000000005
   204   2      5.2859999999999996      5.2859999999999996                   7.048
   205   1                   3.524                   3.524      10.571999999999999
   206   1                   3.524      5.2859999999999996                  12.334
   207   1      5.2859999999999996                   3.524                  12.334
   208   1      5.2859999999999996      5.2859999999999996      10.571999999999999
   209   3                   3.524                   3.524                  14.096
   210   4                   3.524      5.2859999999999996      15.858000000000001
   211   1      5.2859999999999996                   3.524      15.858000000000001
   212   3      5.2859999999999996      5.2859999999999996                  14.096
   213   1                   3.524                   3.524      17.620000000000001
   214   1                   3.524      5.2859999999999996      19.382000000000001
   215   1      5.2859999999999996                   3.524      19.382000000000001
   216   1      5.2859999999999996      5.2859999999999996      17.620000000000001
   217   1                   3.524                   3.524      21.143999999999998
   218   1                   3.524      5.2859999999999996      22.905999999999999
   219   3      5.2859999999999996                   3.524      22.905999999999999
   220   1      5.2859999999999996      5.2859999999999996      21.143999999999998
   221   2                   3.524                   3.524      24.667999999999999
   222   1                   3.524      5.2859999999999996                   26.43
   223   3      5.2859999999999996                   3.524                   26.43
   224   1      5.2859999999999996      5.2859999999999996      24.667999999999999
   225   1                   3.524                   7.048                       0
   226   1                   3.524      8.8100000000000005      1.7619999999999996
   227   1      5.2859999999999996                   7.048      1.7619999999999996
   228   1      5.2859999999999996      8.8100000000000005                       0
   229   4                   3.524                   7.048      3.5239999999999991
   230   1                   3.524      8.8100000000000005      5.2859999999999996
   231   1      5.2859999999999996                   7.048      5.2859999999999996
   232   1      5.2859999999999996      8.8100000000000005      3.5239999999999991
   233   1                   3.524                   7.048                   7.048
   234   1                   3.524      8.8100000000000005      8.8100000000000005
   235   3      5.2859999999999996                   7.048      8.8100000000000005
   236   1      5.2859999999999996      8.8100000000000005                   7.048
   237   1                   3.524                   7.048      10.571999999999999
   238   3                   3.524      8.8100000000000005                  12.334
   239   1      5.2859999999999996                   7.048                  12.334
   240   1      5.2859999999999996      8.8100000000000005      10.571999999999999
   241   1                   3.524                   7.048                  14.096
   242   1                   3.524      8.8100000000000005      15.858000000000001
   243   1      5.2859999999999996                   7.048      15.858000000000001
   244   1      5.2859999999999996      8.8100000000000005                  14.096
   245   1                   3.524                   7.048      17.620000000000001
   246   1                   3.524      8.8100000000000005      19.382000000000001
   247   1      5.2859999999999996                   7.048      19.382000000000001
   248   1      5.2859999999999996      8.8100000000000005      17.620000000000001
   249   1                   3.524                   7.048      21.143999999999998
   250   3                   3.524      8.8100000000000005      22.905999999999999
   251   1      5.2859999999999996                   7.048      22.905999999999999
   252   1      5.2859999999999996      8.8100000000000005      21.143999999999998
   253   1                   3.524                   7.048      24.667999999999999
   254   3                   3.524      8.8100000000000005                   26.43
   255   1      5.2859999999999996                   7.048                   26.43
   256   1      5.2859999999999996      8.8100000000000005      24.667999999999999
   257   1                   3.524      10.571999999999999                       0
   258   1                   3.524                  12.334      1.7619999999999996
   259   1      5.2859999999999996      10.571999999999999      1.7619999999999996
   260   1      5.2859999999999996                  12.334                       0
   261   1                   3.524      10.571999999999999      3.5239999999999991
   262   2                   3.524                  12.334      5.2859999999999996
   263   1      5.2859999999999996      10.571999999999999      5.2859999999999996
   264   1      5.2859999999999996                  12.334      3.5239999999999991
   265   1                   3.524      10.571999999999999                   7.048
   266   1                   3.524                  12.334      8.8100000000000005
   267   3      5.2859999999999996      10.571999999999999      8.8100000000000005
   268   1      5.2859999999999996                  12.334                   7.048
   269   2                   3.524      10.571999999999999      10.571999999999999
   270   1                   3.524                  12.334                  12.334
   271   1      5.2859999999999996      10.571999999999999                  12.334
   272   1      5.2859999999999996                  12.334      10.571999999999999
   273   1                   3.524      10.571999999999999                  14.096
   274   1                   3.524                  12.334      15.858000000000001
   275   1      5.2859999999999996      10.571999999999999      15.858000000000001
   276   1      5.2859999999999996                  12.334                  14.096
   277   1                   3.524      10.571999999999999      17.620000000000001
   278   2                   3.524                  12.334      19.382000000000001
   279   1      5.2859999999999996      10.571999999999999      19.382000000000001
   280   1      5.2859999999999996                  12.334      17.620000000000001
   281   1                   3.524      10.571999999999999      21.143999999999998
   282   2                   3.524                  12.334      22.905999999999999
   283   1      5.2859999999999996      10.571999999999999      22.905999999999999
   284   1      5.2859999999999996                  12.334      21.143999999999998
   285   1                   3.524      10.571999999999999      24.667999999999999
   286   1                   3.524                  12.334                   26.43
   287   1      5.2859999999999996      10.571999999999999                   26.43
   288   1      5.2859999999999996                  12.334      24.667999999999999
   289   1                   3.524                  14.096                       0
   290   1                   3.524      15.858000000000001      1.7619999999999996
   291   6      5.2859999999999996                  14.096      1.7619999999999996
   292   1      5.2859999999999996      15.858000000000001                       0
   293   1                   3.524                  14.096      3.5239999999999991
   294   1                   3.524      15.858000000000001      5.2859999999999996
   295   1      5.2859999999999996                  14.096      5.2859999999999996
   296   1      5.2859999999999996      15.858000000000001      3.5239999999999991
   297   1                   3.524                  14.096                   7.048
   298   1                   3.524      15.858000000000001      8.8100000000000005
   299   2      5.2859999999999996                  14.096      8.8100000000000005
   300   1      5.2859999999999996      15.858000000000001                   7.048
   301   1                   3.524                  14.096      10.571999999999999
   302   2                   3.524      15.858000000000001                  12.334
   303   2      5.2859999999999996                  14.096                  12.334
   304   1      5.2859999999999996      15.858000000000001      10.571999999999999
   305   3                   3.524                  14.096                  14.096
   306   3                   3.524      15.858000000000001      15.858000000000001
   307   1      5.2859999999999996                  14.096      15.858000000000001
   308   1      5.2859999999999996      15.858000000000001                  14.096
   309   1                   3.524                  14.096      17.620000000000001
   310   1                   3.524      15.858000000000001      19.382000000000001
   311   3      5.2859999999999996                  14.096      19.382000000000001
   312   3      5.2859999999999996      15.858000000000001      17.620000000000001
   313   1                   3.524                  14.096      21.143999999999998
   314   1                   3.524      15.858000000000001      22.905999999999999
   315   1      5.2859999999999996                  14.096      22.905999999999999
   316   1      5.2859999999999996      15.858000000000001      21.143999999999998
   317   1                   3.524                  14.096      24.667999999999999
   318   1                   3.524      15.858000000000001                   26.43
   319   1      5.2859999999999996                  14.096                   26.43
   320   1      5.2859999999999996      15.858000000000001      24.667999999999999
   321   3                   7.048                       0                       0
   322   2                   7.048                   1.762      1.7619999999999996
   323   3      8.8100000000000005                       0      1.7619999999999996
   324   2      8.8100000000000005                   1.762                       0
   325   1                   7.048                       0      3.5239999999999991
   326   1                   7.048                   1.762      5.2859999999999996
   327   1      8.8100000000000005                       0      5.2859999999999996
   328   1      8.8100000000000005                   1.762      3.5239999999999991
   329   1                   7.048                       0                   7.048
   330   1                   7.048                   1.762      8.8100000000000005
   331   1      8.8100000000000005                       0      8.8100000000000005
   332   1      8.8100000000000005                   1.762                   7.048
   333   2                   7.048                       0      10.571999999999999
   334   1                   7.048                   1.762                  12.334
   335   3      8.8100000000000005                       0                  12.334
   336   1      8.8100000000000005                   1.762      10.571999999999999
   337   1                   7.048                       0                  14.096
   338   1                   7.048                   1.762      15.858000000000001
   339   1      8.8100000000000005                       0      15.858000000000001
   340   1      8.8100000000000005                   1.762                  14.096
   341   3                   7.048                       0      17.620000000000001
   342   1                   7.048                   1.762      19.382000000000001
   343   1      8.8100000000000005                       0      19.382000000000001
   344   1      8.8100000000000005                   1.762      17.620000000000001
   345   1                   7.048                       0      21.143999999999998
   346   1                   7.048                   1.762      22.905999999999999
   347   1      8.8100000000000005                       0      22.905999999999999
   348   1      8.8100000000000005                   1.762      21.143999999999998
   349   1                   7.048                       0      24.667999999999999
   350   3                   7.048                   1.762                   26.43
   351   1      8.8100000000000005                       0                   26.43
   352   1      8.8100000000000005                   1.762      24.667999999999999
   353   1                   7.048                   3.524                       0
   354   1                   7.048      5.2859999999999996      1.7619999999999996
   355   1      8.8100000000000005                   3.524      1.7619999999999996
   356   1      8.8100000000000005      5.2859999999999996                       0
   357   1                   7.048                   3.524      3.5239999999999991
   358   1                   7.048      5.2859999999999996      5.2859999999999996
   359   2      8.8100000000000005                   3.524      5.2859999999999996
   360   1      8.8100000000000005      5.2859999999999996      3.5239999999999991
   361   4                   7.048                   3.524                   7.048
   362   1                   7.048      5.2859999999999996      8.8100000000000005
   363   1      8.8100000000000005                   3.524      8.8100000000000005
   364   1      8.8100000000000005      5.2859999999999996                   7.048
   365   1                   7.048                   3.524      10.571999999999999
   366   1                   7.048      5.2859999999999996                  12.334
   367   1      8.8100000000000005                   3.524                  12.334
   368   1      8.8100000000000005      5.2859999999999996      10.571999999999999
   369   1                   7.048                   3.524                  14.096
   370   1                   7.048      5.2859999999999996      15.858000000000001
   371   1      8.8100000000000005                   3.524      15.858000000000001
   372   1      8.8100000000000005      5.2859999999999996                  14.096
   373   1                   7.048                   3.524      17.620000000000001
   374   1                   7.048      5.2859999999999996      19.382000000000001
   375   1      8.8100000000000005                   3.524      19.382000000000001
   376   2      8.8100000000000005      5.2859999999999996      17.620000000000001
   377   1                   7.048                   3.524      21.143999999999998
   378   2                   7.048      5.2859999999999996      22.905999999999999
   379   1      8.8100000000000005                   3.524      22.905999999999999
   380   1      8.8100000000000005      5.2859999999999996      21.143999999999998
   381   2                   7.048                   3.524      24.667999999999999
   382   1                   7.048      5.2859999999999996                   26.43
   383   1      8.8100000000000005                   3.524                   26.43
   384   1      8.8100000000000005      5.2859999999999996      24.667999999999999
   385   1                   7.048                   7.048                       0
   386   1                   7.048      8.8100000000000005      1.7619999999999996
   387   1      8.8100000000000005                   7.048      1.7619999999999996
   388   1      8.8100000000000005      8.8100000000000005                       0
   389   1                   7.048                   7.048      3.5239999999999991
   390   1                   7.048      8.8100000000000005      5.2859999999999996
   391   2      8.8100000000000005                   7.048      5.2859999999999996
   392   2      8.8100000000000005      8.8100000000000005      3.5239999999999991
   393   1                   7.048                   7.048                   7.048
   394   1                   7.048      8.8100000000000005      8.8100000000000005
   395   2      8.8100000000000005                   7.048      8.8100000000000005
   396   1      8.8100000000000005      8.8100000000000005                   7.048
   397   1                   7.048                   7.048      10.571999999999999
   398   1                   7.048      8.8100000000000005                  12.334
   399   1      8.8100000000000005                   7.048                  12.334
   400   2      8.8100000000000005      8.8100000000000005      10.571999999999999
   401   4                   7.048                   7.048                  14.096
   402   1                   7.048      8.8100000000000005      15.858000000000001
   403   1      8.8100000000000005                   7.048      15.858000000000001
   404   1      8.8100000000000005      8.8100000000000005                  14.096
   405   1                   7.048                   7.048      17.620000000000001
   406   1                   7.048      8.8100000000000005      19.382000000000001
   407   4      8.8100000000000005                   7.048      19.382000000000001
   408   1      8.8100000000000005      8.8100000000000005      17.620000000000001
   409   4                   7.048                   7.048      21.143999999999998
   410   1                   7.048      8.8100000000000005      22.905999999999999
   411   1      8.8100000000000005                   7.048      22.905999999999999
   412   1      8.8100000000000005      8.8100000000000005      21.143999999999998
   413   1                   7.048                   7.048      24.667999999999999
   414   1                   7.048      8.8100000000000005                   26.43
   415   2      8.8100000000000005                   7.048                   26.43
   416   3      8.8100000000000005      8.8100000000000005      24.667999999999999
   417   1                   7.048      10.571999999999999                       0
   418   1                   7.048                  12.334      1.7619999999999996
   419   1      8.8100000000000005      10.571999999999999      1.7619999999999996
   420   4      8.8100000000000005                  12.334                       0
   421   6                   7.048      10.571999999999999      3.5239999999999991
   422   3                   7.048                  12.334      5.2859999999999996
   423   4      8.8100000000000005      10.571999999999999      5.2859999999999996
   424   2      8.8100000000000005                  12.334      3.5239999999999991
   425   1                   7.048      10.571999999999999                   7.048
   426   1                   7.048                  12.334      8.8100000000000005
   427   1      8.8100000000000005      10.571999999999999      8.8100000000000005
   428   1      8.8100000000000005                  12.334                   7.048
   429   1                   7.048      10.571999999999999      10.571999999999999
   430   1                   7.048                  12.334                  12.334
   431   2      8.8100000000000005      10.571999999999999                  12.334
   432   1      8.8100000000000005                  12.334      10.571999999999999
   433   3                   7.048      10.571999999999999                  14.096
   434   2                   7.048                  12.334      15.858000000000001
   435   3      8.8100000000000005      10.571999999999999      15.858000000000001
   436   1      8.8100000000000005                  12.334                  14.096
   437   1                   7.048      10.571999999999999      17.620000000000001
   438   1                   7.048                  12.334      19.382000000000001
   439   1      8.8100000000000005      10.571999999999999      19.382000000000001
   440   1      8.8100000000000005                  12.334      17.620000000000001
   441   1                   7.048      10.571999999999999      21.143999999999998
   442   1                   7.048                  12.334      22.905999999999999
   443   2      8.8100000000000005      10.571999999999999      22.905999999999999
   444   1      8.8100000000000005                  12.334      21.143999999999998
   445   1                   7.048      10.571999999999999      24.667999999999999
   446   1                   7.048                  12.334                   26.43
   447   1      8.8100000000000005      10.571999999999999                   26.43
   448   1      8.8100000000000005                  12.334      24.667999999999999
   449   4                   7.048                  14.096                       0
   450   1                   7.048      15.858000000000001      1.7619999999999996
   451   1      8.8100000000000005                  14.096      1.7619999999999996
   452   1      8.8100000000000005      15.858000000000001                       0
   453   1                   7.048                  14.096      3.5239999999999991
   454   1                   7.048      15.858000000000001      5.2859999999999996
   455   1      8.8100000000000005                  14.096      5.2859999999999996
   456   1      8.8100000000000005      15.858000000000001      3.5239999999999991
   457   1                   7.048                  14.096                   7.048
   458   4                   7.048      15.858000000000001      8.8100000000000005
   459   1      8.8100000000000005                  14.096      8.8100000000000005
   460   2      8.8100000000000005      15.858000000000001                   7.048
   461   1                   7.048                  14.096      10.571999999999999
   462   1                   7.048      15.858000000000001                  12.334
   463   1      8.8100000000000005                  14.096                  12.334
   464   3      8.8100000000000005      15.858000000000001      10.571999999999999
   465   3                   7.048                  14.096                  14.096
   466   2                   7.048      15.858000000000001      15.858000000000001
   467   1      8.8100000000000005                  14.096      15.858000000000001
   468   1      8.8100000000000005      15.858000000000001                  14.096
   469   1                   7.048                  14.096      17.620000000000001
   470   1                   7.048      15.858000000000001      19.382000000000001
   471   6      8.8100000000000005                  14.096      19.382000000000001
   472   2      8.8100000000000005      15.858000000000001      17.620000000000001
   473   1                   7.048                  14.096      21.143999999999998
   474   4                   7.048      15.858000000000001      22.905999999999999
   475   2      8.8100000000000005                  14.096      22.905999999999999
   476   3      8.8100000000000005      15.858000000000001      21.143999999999998
   477   1                   7.048                  14.096      24.667999999999999
   478   3                   7.048      15.858000000000001                   26.43
   479   1      8.8100000000000005                  14.096                   26.43
   480   1      8.8100000000000005      15.858000000000001      24.667999999999999
   481   3                       0                       0      32.960000000000001
   482   3                       0                       0      30.323540000000001
   483   3      2.6430000000000007      1.4683333333333333      37.489999999999995
   484   3      2.6430000000000007      1.4683333333333333      34.853540000000002
   485   3   5.868638908168577e-16      2.9366666666666665                   28.43
   486   3   5.868638908168577e-16      2.9366666666666665      39.383539999999996
   487   3                       0                       0      37.118540000000003
   488   3                       0                       0      39.755000000000003
   489   3      2.6430000000000007      1.4683333333333333      41.648539999999997
   490   3      2.6430000000000007      1.4683333333333333                  30.695
   491   3   5.868638908168577e-16      2.9366666666666665      32.588540000000002
   492   3   5.868638908168577e-16      2.9366666666666665      35.225000000000001
   493   8      1.6175160000000002                       0      31.641770000000001
   494   8                9.763242       1.347929999999999      31.641770000000001
   495   8      1.8342419999999997      3.0570699999999986      31.641770000000001
   496   8      4.2605159999999991      1.4683333333333333      36.171770000000002
   497   8      1.8342420000000008      2.8162633333333331      36.171770000000002
   498   8      1.8342419999999997     0.12040333333333328      36.171770000000002
   499   8      1.6175160000000004      2.9366666666666665      40.701770000000003
   500   8                9.763242      4.2845966666666664      40.701770000000003
   501   8                9.763242      1.5887366666666665      40.701770000000003
   502   8      3.6684839999999994                       0      38.436770000000003
   503   8      8.7377580000000012      3.0570699999999986      38.436770000000003
   504   8     0.80875800000000064       1.347929999999999      38.436770000000003
   505   8      1.0254839999999998      1.4683333333333333                29.37677
   506   8      3.4517580000000017     0.12040333333333328                29.37677
   507   8      3.4517579999999994      2.8162633333333331                29.37677
   508   8       8.954483999999999      2.9366666666666665      33.906770000000002
   509   8     0.80875800000000064      1.5887366666666665      33.906770000000002
   510   8     0.80875800000000064      4.2845966666666664      33.906770000000002
   511   3                       0                       0      46.550000000000004
   512   3                       0                       0      43.913540000000005
   513   3      2.6430000000000007      1.4683333333333333      51.079999999999998
   514   3      2.6430000000000007      1.4683333333333333      48.443539999999999
   515   3   5.868638908168577e-16      2.9366666666666665      42.019999999999996
   516   3   5.868638908168577e-16      2.9366666666666665                52.97354
   517   3                       0                       0      50.708539999999999
   518   3                       0                       0      53.344999999999999
   519   3      2.6430000000000007      1.4683333333333333                55.23854
   520   3      2.6430000000000007      1.4683333333333333      44.285000000000004
   521   3   5.868638908168577e-16      2.9366666666666665      46.178539999999998
   522   3   5.868638908168577e-16      2.9366666666666665      48.814999999999998
   523   8      1.6175160000000002                       0      45.231770000000004
   524   8                9.763242       1.347929999999999      45.231770000000004
   525   8      1.8342419999999997      3.0570699999999986      45.231770000000004
   526   8      4.2605159999999991      1.4683333333333333      49.761769999999999
   527   8      1.8342420000000008      2.8162633333333331      49.761769999999999
   528   8      1.8342419999999997     0.12040333333333328      49.761769999999999
   529   8      1.6175160000000004      2.9366666666666665                54.29177
   530   8                9.763242      4.2845966666666664                54.29177
   531   8                9.763242      1.5887366666666665                54.29177
   532   8      3.6684839999999994                       0      52.026769999999999
   533   8      8.7377580000000012      3.0570699999999986      52.026769999999999
   534   8     0.80875800000000064       1.347929999999999      52.026769999999999
   535   8      1.0254839999999998      1.4683333333333333      42.966769999999997
   536   8      3.4517580000000017     0.12040333333333328      42.966769999999997
   537   8      3.4517579999999994      2.8162633333333331      42.966769999999997
   538   8       8.954483999999999      2.9366666666666665      47.496769999999998
   539   8     0.80875800000000064      1.5887366666666665      47.496769999999998
   540   8     0.80875800000000064      4.2845966666666664      47.496769999999998
   541   3      7.9289999999999994      4.4049999999999994      32.960000000000001
   542   3      7.9289999999999994      4.4049999999999994      30.323540000000001
   543   3  1.1737277816337154e-15      5.8733333333333331      37.489999999999995
   544   3  1.1737277816337154e-15      5.8733333333333331      34.853540000000002
   545   3      7.9289999999999994      7.3416666666666632                   28.43
   546   3      7.9289999999999994      7.3416666666666632      39.383539999999996
   547   3      7.9289999999999994      4.4049999999999994      37.118540000000003
   548   3      7.9289999999999994      4.4049999999999994      39.755000000000003
   549   3  1.1737277816337154e-15      5.8733333333333331      41.648539999999997
   550   3  1.1737277816337154e-15      5.8733333333333331                  30.695
   551   3      7.9289999999999994      7.3416666666666632      32.588540000000002
   552   3      7.9289999999999994      7.3416666666666632      35.225000000000001
   553   8      9.5465160000000022      4.4049999999999994      31.641770000000001
   554   8      7.1202420000000002      5.7529299999999965      31.641770000000001
   555   8                9.763242      7.4620699999999998      31.641770000000001
   556   8      1.6175160000000002      5.8733333333333331      36.171770000000002
   557   8                9.763242      7.2212633333333329      36.171770000000002
   558   8                9.763242      4.5254033333333314      36.171770000000002
   559   8      9.5465160000000022      7.3416666666666632      40.701770000000003
   560   8      7.1202420000000002      8.6895966666666666      40.701770000000003
   561   8      7.1202420000000002      5.9937366666666669      40.701770000000003
   562   8      1.0254839999999998      4.4049999999999994      38.436770000000003
   563   8      6.0947580000000015      7.4620699999999998      38.436770000000003
   564   8      8.7377580000000012      5.7529299999999965      38.436770000000003
   565   8       8.954483999999999      5.8733333333333331                29.37677
   566   8     0.80875800000000064      4.5254033333333314                29.37677
   567   8     0.80875799999999953      7.2212633333333329                29.37677
   568   8      6.3114839999999992      7.3416666666666632      33.906770000000002
   569   8      8.7377580000000012      5.9937366666666669      33.906770000000002
   570   8      8.7377580000000012      8.6895966666666666      33.906770000000002
   571   3      7.9289999999999994      4.4049999999999994      46.550000000000004
   572   3      7.9289999999999994      4.4049999999999994      43.913540000000005
   573   3  1.1737277816337154e-15      5.8733333333333331      51.079999999999998
   574   3  1.1737277816337154e-15      5.8733333333333331      48.443539999999999
   575   3      7.9289999999999994      7.3416666666666632      42.019999999999996
   576   3      7.9289999999999994      7.3416666666666632                52.97354
   577   3      7.9289999999999994      4.4049999999999994      50.708539999999999
   578   3      7.9289999999999994      4.4049999999999994      53.344999999999999
   579   3  1.1737277816337154e-15      5.8733333333333331                55.23854
   580   3  1.1737277816337154e-15      5.8733333333333331      44.285000000000004
   581   3      7.9289999999999994      7.3416666666666632      46.178539999999998
   582   3      7.9289999999999994      7.3416666666666632      48.814999999999998
   583   8      9.5465160000000022      4.4049999999999994      45.231770000000004
   584   8      7.1202420000000002      5.7529299999999965      45.231770000000004
   585   8                9.763242      7.4620699999999998      45.231770000000004
   586   8      1.6175160000000002      5.8733333333333331      49.761769999999999
   587   8                9.763242      7.2212633333333329      49.761769999999999
   588   8                9.763242      4.5254033333333314      49.761769999999999
   589   8      9.5465160000000022      7.3416666666666632                54.29177
   590   8      7.1202420000000002      8.6895966666666666                54.29177
   591   8      7.1202420000000002      5.9937366666666669                54.29177
   592   8      1.0254839999999998      4.4049999999999994      52.026769999999999
   593   8      6.0947580000000015      7.4620699999999998      52.026769999999999
   594   8      8.7377580000000012      5.7529299999999965      52.026769999999999
   595   8       8.954483999999999      5.8733333333333331      42.966769999999997
   596   8     0.80875800000000064      4.5254033333333314      42.966769999999997
   597   8     0.80875799999999953      7.2212633333333329      42.966769999999997
   598   8      6.3114839999999992      7.3416666666666632      47.496769999999998
   599   8      8.7377580000000012      5.9937366666666669      47.496769999999998
   600   8      8.7377580000000012      8.6895966666666666      47.496769999999998
   601   3      5.2859999999999987      8.8099999999999969      32.960000000000001
   602   3      5.2859999999999987      8.8099999999999969      30.323540000000001
   603   3      7.9289999999999994      10.278333333333327      37.489999999999995
   604   3      7.9289999999999994      10.278333333333327      34.853540000000002
   605   3      5.2859999999999987      11.746666666666666                   28.43
   606   3      5.2859999999999987      11.746666666666666      39.383539999999996
   607   3      5.2859999999999987      8.8099999999999969      37.118540000000003
   608   3      5.2859999999999987      8.8099999999999969      39.755000000000003
   609   3      7.9289999999999994      10.278333333333327      41.648539999999997
   610   3      7.9289999999999994      10.278333333333327                  30.695
   611   3      5.2859999999999987      11.746666666666666      32.588540000000002
   612   3      5.2859999999999987      11.746666666666666      35.225000000000001
   613   8      6.9035159999999998      8.8099999999999969      31.641770000000001
   614   8      4.4772419999999995                10.15793      31.641770000000001
   615   8      7.1202420000000002                11.86707      31.641770000000001
   616   8      9.5465160000000022      10.278333333333327      36.171770000000002
   617   8      7.1202420000000002      11.626263333333325      36.171770000000002
   618   8      7.1202420000000002      8.9304033333333326      36.171770000000002
   619   8      6.9035159999999998      11.746666666666666      40.701770000000003
   620   8      4.4772419999999995      13.094596666666666      40.701770000000003
   621   8      4.4772419999999995      10.398736666666659      40.701770000000003
   622   8       8.954483999999999      8.8099999999999969      38.436770000000003
   623   8      3.4517579999999999                11.86707      38.436770000000003
   624   8      6.0947580000000015                10.15793      38.436770000000003
   625   8      6.3114839999999992      10.278333333333327                29.37677
   626   8      8.7377580000000012      8.9304033333333326                29.37677
   627   8      8.7377580000000012      11.626263333333325                29.37677
   628   8      3.6684840000000007      11.746666666666666      33.906770000000002
   629   8      6.0947580000000015      10.398736666666659      33.906770000000002
   630   8      6.0947580000000015      13.094596666666666      33.906770000000002
   631   3      5.2859999999999987      8.8099999999999969      46.550000000000004
   632   3      5.2859999999999987      8.8099999999999969      43.913540000000005
   633   3      7.9289999999999994      10.278333333333327      51.079999999999998
   634   3      7.9289999999999994      10.278333333333327      48.443539999999999
   635   3      5.2859999999999987      11.746666666666666      42.019999999999996
   636   3      5.2859999999999987      11.746666666666666                52.97354
   637   3      5.2859999999999987      8.8099999999999969      50.708539999999999
   638   3      5.2859999999999987      8.8099999999999969      53.344999999999999
   639   3      7.9289999999999994      10.278333333333327                55.23854
   640   3      7.9289999999999994      10.278333333333327      44.285000000000004
   641   3      5.2859999999999987      11.746666666666666      46.178539999999998
   642   3      5.2859999999999987      11.746666666666666      48.814999999999998
   643   8      6.9035159999999998      8.8099999999999969      45.231770000000004
   644   8      4.4772419999999995                10.15793      45.231770000000004
   645   8      7.1202420000000002                11.86707      45.231770000000004
   646   8      9.5465160000000022      10.278333333333327      49.761769999999999
   647   8      7.1202420000000002      11.626263333333325      49.761769999999999
   648   8      7.1202420000000002      8.9304033333333326      49.761769999999999
   649   8      6.9035159999999998      11.746666666666666                54.29177
   650   8      4.4772419999999995      13.094596666666666                54.29177
   651   8      4.4772419999999995      10.398736666666659                54.29177
   652   8       8.954483999999999      8.8099999999999969      52.026769999999999
   653   8      3.4517579999999999                11.86707      52.026769999999999
   654   8      6.0947580000000015                10.15793      52.026769999999999
   655   8      6.3114839999999992      10.278333333333327      42.966769999999997
   656   8      8.7377580000000012      8.9304033333333326      42.966769999999997
   657   8      8.7377580000000012      11.626263333333325      42.966769999999997
   658   8      3.6684840000000007      11.746666666666666      47.496769999999998
   659   8      6.0947580000000015      10.398736666666659      47.496769999999998
   660   8      6.0947580000000015      13.094596666666666      47.496769999999998
   661   3      2.6429999999999998                  13.215      32.960000000000001
   662   3      2.6429999999999998                  13.215      30.323540000000001
   663   3      5.2859999999999987      14.683333333333326      37.489999999999995
   664   3      5.2859999999999987      14.683333333333326      34.853540000000002
   665   3      2.6430000000000007      16.151666666666667                   28.43
   666   3      2.6430000000000007      16.151666666666667      39.383539999999996
   667   3      2.6429999999999998                  13.215      37.118540000000003
   668   3      2.6429999999999998                  13.215      39.755000000000003
   669   3      5.2859999999999987      14.683333333333326      41.648539999999997
   670   3      5.2859999999999987      14.683333333333326                  30.695
   671   3      2.6430000000000007      16.151666666666667      32.588540000000002
   672   3      2.6430000000000007      16.151666666666667      35.225000000000001
   673   8      4.2605160000000009                  13.215      31.641770000000001
   674   8      1.8342420000000008      14.562929999999996      31.641770000000001
   675   8      4.4772419999999995      16.272069999999999      31.641770000000001
   676   8      6.9035159999999998      14.683333333333326      36.171770000000002
   677   8      4.4772420000000013      16.031263333333325      36.171770000000002
   678   8      4.4772420000000013      13.335403333333332      36.171770000000002
   679   8      4.2605160000000009      16.151666666666667      40.701770000000003
   680   8      1.8342419999999997      17.499596666666665      40.701770000000003
   681   8      1.8342419999999997       14.80373666666666      40.701770000000003
   682   8      6.3114839999999992                  13.215      38.436770000000003
   683   8     0.80875800000000009      16.272069999999999      38.436770000000003
   684   8      3.4517579999999999      14.562929999999996      38.436770000000003
   685   8      3.6684839999999994      14.683333333333326                29.37677
   686   8      6.0947580000000015      13.335403333333332                29.37677
   687   8      6.0947580000000015      16.031263333333325                29.37677
   688   8       1.025484000000001      16.151666666666667      33.906770000000002
   689   8      3.4517580000000017       14.80373666666666      33.906770000000002
   690   8      3.4517580000000017      17.499596666666665      33.906770000000002
   691   3      2.6429999999999998                  13.215      46.550000000000004
   692   3      2.6429999999999998                  13.215      43.913540000000005
   693   3      5.2859999999999987      14.683333333333326      51.079999999999998
   694   3      5.2859999999999987      14.683333333333326      48.443539999999999
   695   3      2.6430000000000007      16.151666666666667      42.019999999999996
   696   3      2.6430000000000007      16.151666666666667                52.97354
   697   3      2.6429999999999998                  13.215      50.708539999999999
   698   3      2.6429999999999998                  13.215      53.344999999999999
   699   3      5.2859999999999987      14.683333333333326                55.23854
   700   3      5.2859999999999987      14.683333333333326      44.285000000000004
   701   3      2.6430000000000007      16.151666666666667      46.178539999999998
   702   3      2.6430000000000007      16.151666666666667      48.814999999999998
   703   8      4.2605160000000009                  13.215      45.231770000000004
   704   8      1.8342420000000008      14.562929999999996      45.231770000000004
   705   8      4.4772419999999995      16.272069999999999      45.231770000000004
   706   8      6.9035159999999998      14.683333333333326      49.761769999999999
   707   8      4.4772420000000013      16.031263333333325      49.761769999999999
   708   8      4.4772420000000013      13.335403333333332      49.761769999999999
   709   8      4.2605160000000009      16.151666666666667                54.29177
   710   8      1.8342419999999997      17.499596666666665                54.29177
   711   8      1.8342419999999997       14.80373666666666                54.29177
   712   8      6.3114839999999992                  13.215      52.026769999999999
   713   8     0.80875800000000009      16.272069999999999      52.026769999999999
   714   8      3.4517579999999999      14.562929999999996      52.026769999999999
   715   8      3.6684839999999994      14.683333333333326      42.966769999999997
   716   8      6.0947580000000015      13.335403333333332      42.966769999999997
   717   8      6.0947580000000015      16.031263333333325      42.966769999999997
   718   8       1.025484000000001      16.151666666666667      47.496769999999998
   719   8      3.4517580000000017       14.80373666666666      47.496769999999998
   720   8      3.4517580000000017      17.499596666666665      47.496769999999998
   721   3      5.2859999999999987                       0      32.960000000000001
   722   3      5.2859999999999987                       0      30.323540000000001
   723   3       7.929000000000002      1.4683333333333333      37.489999999999995
   724   3       7.929000000000002      1.4683333333333333      34.853540000000002
   725   3      5.2860000000000014      2.9366666666666665                   28.43
   726   3      5.2860000000000014      2.9366666666666665      39.383539999999996
   727   3      5.2859999999999987                       0      37.118540000000003
   728   3      5.2859999999999987                       0      39.755000000000003
   729   3       7.929000000000002      1.4683333333333333      41.648539999999997
   730   3       7.929000000000002      1.4683333333333333                  30.695
   731   3      5.2860000000000014      2.9366666666666665      32.588540000000002
   732   3      5.2860000000000014      2.9366666666666665      35.225000000000001
   733   8      6.9035159999999998                       0      31.641770000000001
   734   8      4.4772420000000013       1.347929999999999      31.641770000000001
   735   8      7.1202420000000002      3.0570699999999986      31.641770000000001
   736   8      9.5465160000000022      1.4683333333333333      36.171770000000002
   737   8       7.120242000000002      2.8162633333333331      36.171770000000002
   738   8      7.1202420000000002     0.12040333333333328      36.171770000000002
   739   8      6.9035160000000033      2.9366666666666665      40.701770000000003
   740   8      4.4772420000000022      4.2845966666666664      40.701770000000003
   741   8      4.4772420000000013      1.5887366666666665      40.701770000000003
   742   8       8.954483999999999                       0      38.436770000000003
   743   8      3.4517579999999999      3.0570699999999986      38.436770000000003
   744   8      6.0947580000000015       1.347929999999999      38.436770000000003
   745   8      6.3114839999999992      1.4683333333333333                29.37677
   746   8      8.7377580000000012     0.12040333333333328                29.37677
   747   8      8.7377579999999959      2.8162633333333331                29.37677
   748   8      3.6684840000000016      2.9366666666666665      33.906770000000002
   749   8      6.0947580000000023      1.5887366666666665      33.906770000000002
   750   8      6.0947580000000015      4.2845966666666664      33.906770000000002
   751   3      5.2859999999999987                       0      46.550000000000004
   752   3      5.2859999999999987                       0      43.913540000000005
   753   3       7.929000000000002      1.4683333333333333      51.079999999999998
   754   3       7.929000000000002      1.4683333333333333      48.443539999999999
   755   3      5.2860000000000014      2.9366666666666665      42.019999999999996
   756   3      5.2860000000000014      2.9366666666666665                52.97354
   757   3      5.2859999999999987                       0      50.708539999999999
   758   3      5.2859999999999987                       0      53.344999999999999
   759   3       7.929000000000002      1.4683333333333333                55.23854
   760   3       7.929000000000002      1.4683333333333333      44.285000000000004
   761   3      5.2860000000000014      2.9366666666666665      46.178539999999998
   762   3      5.2860000000000014      2.9366666666666665      48.814999999999998
   763   8      6.9035159999999998                       0      45.231770000000004
   764   8      4.4772420000000013       1.347929999999999      45.231770000000004
   765   8      7.1202420000000002      3.0570699999999986      45.231770000000004
   766   8      9.5465160000000022      1.4683333333333333      49.761769999999999
   767   8       7.120242000000002      2.8162633333333331      49.761769999999999
   768   8      7.1202420000000002     0.12040333333333328      49.761769999999999
   769   8      6.9035160000000033      2.9366666666666665                54.29177
   770   8      4.4772420000000022      4.2845966666666664                54.29177
   771   8      4.4772420000000013      1.5887366666666665                54.29177
   772   8       8.954483999999999                       0      52.026769999999999
   773   8      3.4517579999999999      3.0570699999999986      52.026769999999999
   774   8      6.0947580000000015       1.347929999999999      52.026769999999999
   775   8      6.3114839999999992      1.4683333333333333      42.966769999999997
   776   8      8.7377580000000012     0.12040333333333328      42.966769999999997
   777   8      8.7377579999999959      2.8162633333333331      42.966769999999997
   778   8      3.6684840000000016      2.9366666666666665      47.496769999999998
   779   8      6.0947580000000023      1.5887366666666665      47.496769999999998
   780   8      6.0947580000000015      4.2845966666666664      47.496769999999998
   781   3      2.6429999999999998      4.4049999999999994      32.960000000000001
   782   3      2.6429999999999998      4.4049999999999994      30.323540000000001
   783   3      5.2859999999999987      5.8733333333333331      37.489999999999995
   784   3      5.2859999999999987      5.8733333333333331      34.853540000000002
   785   3       2.643000000000002      7.3416666666666632                   28.43
   786   3       2.643000000000002      7.3416666666666632      39.383539999999996
   787   3      2.6429999999999998      4.4049999999999994      37.118540000000003
   788   3      2.6429999999999998      4.4049999999999994      39.755000000000003
   789   3      5.2859999999999987      5.8733333333333331      41.648539999999997
   790   3      5.2859999999999987      5.8733333333333331                  30.695
   791   3       2.643000000000002      7.3416666666666632      32.588540000000002
   792   3       2.643000000000002      7.3416666666666632      35.225000000000001
   793   8      4.2605160000000009      4.4049999999999994      31.641770000000001
   794   8      1.8342419999999993      5.7529299999999965      31.641770000000001
   795   8      4.4772419999999995      7.4620699999999998      31.641770000000001
   796   8      6.9035159999999989      5.8733333333333331      36.171770000000002
   797   8      4.4772419999999995      7.2212633333333329      36.171770000000002
   798   8      4.4772419999999995      4.5254033333333314      36.171770000000002
   799   8      4.2605160000000009      7.3416666666666632      40.701770000000003
   800   8      1.8342420000000019      8.6895966666666666      40.701770000000003
   801   8      1.8342420000000017      5.9937366666666669      40.701770000000003
   802   8      6.3114839999999992      4.4049999999999994      38.436770000000003
   803   8     0.80875800000000009      7.4620699999999998      38.436770000000003
   804   8      3.4517580000000017      5.7529299999999965      38.436770000000003
   805   8      3.6684840000000007      5.8733333333333331                29.37677
   806   8      6.0947580000000015      4.5254033333333314                29.37677
   807   8       6.094757999999997      7.2212633333333329                29.37677
   808   8      1.0254840000000005      7.3416666666666632      33.906770000000002
   809   8      3.4517580000000017      5.9937366666666669      33.906770000000002
   810   8      3.4517579999999999      8.6895966666666666      33.906770000000002
   811   3      2.6429999999999998      4.4049999999999994      46.550000000000004
   812   3      2.6429999999999998      4.4049999999999994      43.913540000000005
   813   3      5.2859999999999987      5.8733333333333331      51.079999999999998
   814   3      5.2859999999999987      5.8733333333333331      48.443539999999999
   815   3       2.643000000000002      7.3416666666666632      42.019999999999996
   816   3       2.643000000000002      7.3416666666666632                52.97354
   817   3      2.6429999999999998      4.4049999999999994      50.708539999999999
   818   3      2.6429999999999998      4.4049999999999994      53.344999999999999
   819   3      5.2859999999999987      5.8733333333333331                55.23854
   820   3      5.2859999999999987      5.8733333333333331      44.285000000000004
   821   3       2.643000000000002      7.3416666666666632      46.178539999999998
   822   3       2.643000000000002      7.3416666666666632      48.814999999999998
   823   8      4.2605160000000009      4.4049999999999994      45.231770000000004
   824   8      1.8342419999999993      5.7529299999999965      45.231770000000004
   825   8      4.4772419999999995      7.4620699999999998      45.231770000000004
   826   8      6.9035159999999989      5.8733333333333331      49.761769999999999
   827   8      4.4772419999999995      7.2212633333333329      49.761769999999999
   828   8      4.4772419999999995      4.5254033333333314      49.761769999999999
   829   8      4.2605160000000009      7.3416666666666632                54.29177
   830   8      1.8342420000000019      8.6895966666666666                54.29177
   831   8      1.8342420000000017      5.9937366666666669                54.29177
   832   8      6.3114839999999992      4.4049999999999994      52.026769999999999
   833   8     0.80875800000000009      7.4620699999999998      52.026769999999999
   834   8      3.4517580000000017      5.7529299999999965      52.026769999999999
   835   8      3.6684840000000007      5.8733333333333331      42.966769999999997
   836   8      6.0947580000000015      4.5254033333333314      42.966769999999997
   837   8       6.094757999999997      7.2212633333333329      42.966769999999997
   838   8      1.0254840000000005      7.3416666666666632      47.496769999999998
   839   8      3.4517580000000017      5.9937366666666669      47.496769999999998
   840   8      3.4517579999999999      8.6895966666666666      47.496769999999998
   841   3   5.868638908168577e-16      8.8099999999999969      32.960000000000001
   842   3   5.868638908168577e-16      8.8099999999999969      30.323540000000001
   843   3      2.6429999999999998      10.278333333333327      37.489999999999995
   844   3      2.6429999999999998      10.278333333333327      34.853540000000002
   845   3  2.3474555632674308e-15      11.746666666666666                   28.43
   846   3  2.3474555632674308e-15      11.746666666666666      39.383539999999996
   847   3   5.868638908168577e-16      8.8099999999999969      37.118540000000003
   848   3   5.868638908168577e-16      8.8099999999999969      39.755000000000003
   849   3      2.6429999999999998      10.278333333333327      41.648539999999997
   850   3      2.6429999999999998      10.278333333333327                  30.695
   851   3  2.3474555632674308e-15      11.746666666666666      32.588540000000002
   852   3  2.3474555632674308e-15      11.746666666666666      35.225000000000001
   853   8      1.6175160000000002      8.8099999999999969      31.641770000000001
   854   8                9.763242                10.15793      31.641770000000001
   855   8      1.8342419999999997                11.86707      31.641770000000001
   856   8      4.2605159999999991      10.278333333333327      36.171770000000002
   857   8      1.8342419999999997      11.626263333333325      36.171770000000002
   858   8      1.8342419999999997      8.9304033333333326      36.171770000000002
   859   8      1.6175160000000002      11.746666666666666      40.701770000000003
   860   8      9.7632420000000035      13.094596666666666      40.701770000000003
   861   8                9.763242      10.398736666666659      40.701770000000003
   862   8      3.6684840000000007      8.8099999999999969      38.436770000000003
   863   8      8.7377580000000012                11.86707      38.436770000000003
   864   8     0.80875800000000009                10.15793      38.436770000000003
   865   8       1.025484000000001      10.278333333333327                29.37677
   866   8      3.4517579999999994      8.9304033333333326                29.37677
   867   8      3.4517579999999994      11.626263333333325                29.37677
   868   8      8.9544840000000026      11.746666666666666      33.906770000000002
   869   8     0.80875800000000131      10.398736666666659      33.906770000000002
   870   8     0.80875800000000009      13.094596666666666      33.906770000000002
   871   3   5.868638908168577e-16      8.8099999999999969      46.550000000000004
   872   3   5.868638908168577e-16      8.8099999999999969      43.913540000000005
   873   3      2.6429999999999998      10.278333333333327      51.079999999999998
   874   3      2.6429999999999998      10.278333333333327      48.443539999999999
   875   3  2.3474555632674308e-15      11.746666666666666      42.019999999999996
   876   3  2.3474555632674308e-15      11.746666666666666                52.97354
   877   3   5.868638908168577e-16      8.8099999999999969      50.708539999999999
   878   3   5.868638908168577e-16      8.8099999999999969      53.344999999999999
   879   3      2.6429999999999998      10.278333333333327                55.23854
   880   3      2.6429999999999998      10.278333333333327      44.285000000000004
   881   3  2.3474555632674308e-15      11.746666666666666      46.178539999999998
   882   3  2.3474555632674308e-15      11.746666666666666      48.814999999999998
   883   8      1.6175160000000002      8.8099999999999969      45.231770000000004
   884   8                9.763242                10.15793      45.231770000000004
   885   8      1.8342419999999997                11.86707      45.231770000000004
   886   8      4.2605159999999991      10.278333333333327      49.761769999999999
   887   8      1.8342419999999997      11.626263333333325      49.761769999999999
   888   8      1.8342419999999997      8.9304033333333326      49.761769999999999
   889   8      1.6175160000000002      11.746666666666666                54.29177
   890   8      9.7632420000000035      13.094596666666666                54.29177
   891   8                9.763242      10.398736666666659                54.29177
   892   8      3.6684840000000007      8.8099999999999969      52.026769999999999
   893   8      8.7377580000000012                11.86707      52.026769999999999
   894   8     0.80875800000000009                10.15793      52.026769999999999
   895   8       1.025484000000001      10.278333333333327      42.966769999999997
   896   8      3.4517579999999994      8.9304033333333326      42.966769999999997
   897   8      3.4517579999999994      11.626263333333325      42.966769999999997
   898   8      8.9544840000000026      11.746666666666666      47.496769999999998
   899   8     0.80875800000000131      10.398736666666659      47.496769999999998
   900   8     0.80875800000000009      13.094596666666666      47.496769999999998
   901   3       7.929000000000002                  13.215      32.960000000000001
   902   3       7.929000000000002                  13.215      30.323540000000001
   903   3  1.1737277816337154e-15      14.683333333333326      37.489999999999995
   904   3  1.1737277816337154e-15      14.683333333333326      34.853540000000002
   905   3       7.929000000000002      16.151666666666667                   28.43
   906   3       7.929000000000002      16.151666666666667      39.383539999999996
   907   3       7.929000000000002                  13.215      37.118540000000003
   908   3       7.929000000000002                  13.215      39.755000000000003
   909   3  1.1737277816337154e-15      14.683333333333326      41.648539999999997
   910   3  1.1737277816337154e-15      14.683333333333326                  30.695
   911   3       7.929000000000002      16.151666666666667      32.588540000000002
   912   3       7.929000000000002      16.151666666666667      35.225000000000001
   913   8      9.5465160000000022                  13.215      31.641770000000001
   914   8      7.1202420000000002      14.562929999999996      31.641770000000001
   915   8                9.763242      16.272069999999999      31.641770000000001
   916   8      1.6175160000000002      14.683333333333326      36.171770000000002
   917   8                9.763242      16.031263333333325      36.171770000000002
   918   8                9.763242      13.335403333333332      36.171770000000002
   919   8      9.5465160000000022      16.151666666666667      40.701770000000003
   920   8       7.120242000000002      17.499596666666665      40.701770000000003
   921   8       7.120242000000002       14.80373666666666      40.701770000000003
   922   8      1.0254839999999998                  13.215      38.436770000000003
   923   8      6.0947580000000015      16.272069999999999      38.436770000000003
   924   8      8.7377580000000012      14.562929999999996      38.436770000000003
   925   8      8.9544840000000026      14.683333333333326                29.37677
   926   8     0.80875800000000009      13.335403333333332                29.37677
   927   8     0.80875799999999887      16.031263333333325                29.37677
   928   8      6.3114840000000028      16.151666666666667      33.906770000000002
   929   8       8.737758000000003       14.80373666666666      33.906770000000002
   930   8      8.7377580000000012      17.499596666666665      33.906770000000002
   931   3       7.929000000000002                  13.215      46.550000000000004
   932   3       7.929000000000002                  13.215      43.913540000000005
   933   3  1.1737277816337154e-15      14.683333333333326      51.079999999999998
   934   3  1.1737277816337154e-15      14.683333333333326      48.443539999999999
   935   3       7.929000000000002      16.151666666666667      42.019999999999996
   936   3       7.929000000000002      16.151666666666667                52.97354
   937   3       7.929000000000002                  13.215      50.708539999999999
   938   3       7.929000000000002                  13.215      53.344999999999999
   939   3  1.1737277816337154e-15      14.683333333333326                55.23854
   940   3  1.1737277816337154e-15      14.683333333333326      44.285000000000004
   941   3       7.929000000000002      16.151666666666667      46.178539999999998
   942   3       7.929000000000002      16.151666666666667      48.814999999999998
   943   8      9.5465160000000022                  13.215      45.231770000000004
   944   8      7.1202420000000002      14.562929999999996      45.231770000000004
   945   8                9.763242      16.272069999999999      45.231770000000004
   946   8      1.6175160000000002      14.683333333333326      49.761769999999999
   947   8                9.763242      16.031263333333325      49.761769999999999
   948   8                9.763242      13.335403333333332      49.761769999999999
   949   8      9.5465160000000022      16.151666666666667                54.29177
   950   8       7.120242000000002      17.499596666666665                54.29177
   951   8       7.120242000000002       14.80373666666666                54.29177
   952   8      1.0254839999999998                  13.215      52.026769999999999
   953   8      6.0947580000000015      16.272069999999999      52.026769999999999
   954   8      8.7377580000000012      14.562929999999996      52.026769999999999
   955   8      8.9544840000000026      14.683333333333326      42.966769999999997
   956   8     0.80875800000000009      13.335403333333332      42.966769999999997
   957   8     0.80875799999999887      16.031263333333325      42.966769999999997
   958   8      6.3114840000000028      16.151666666666667      47.496769999999998
   959   8       8.737758000000003       14.80373666666666      47.496769999999998
   960   8      8.7377580000000012      17.499596666666665      47.496769999999998

Masses

1  58.693  # Ni
2  95.960  # Mo
3  51.996  # Cr
4  55.845  # Fe
5  12.011  # C
6  26.982  # Al
7  10.811  # B
8  15.999  # O
