960
Lattice="10.572 0.0 0.0 0.0 17.62 0.0 0.0 0.0 57.23854" Properties=species:S:1:pos:R:3 pbc="T T T"
Mo       0.00000000       0.00000000       0.00000000
Ni       0.00000000       1.76200000       1.76200000
Ni       1.76200000       0.00000000       1.76200000
Ni       1.76200000       1.76200000       0.00000000
Ni       0.00000000       0.00000000       3.52400000
Ni       0.00000000       1.76200000       5.28600000
Ni       1.76200000       0.00000000       5.28600000
Ni       1.76200000       1.76200000       3.52400000
Ni       0.00000000       0.00000000       7.04800000
Mo       0.00000000       1.76200000       8.81000000
Ni       1.76200000       0.00000000       8.81000000
Mo       1.76200000       1.76200000       7.04800000
Ni       0.00000000       0.00000000      10.57200000
Ni       0.00000000       1.76200000      12.33400000
Ni       1.76200000       0.00000000      12.33400000
Cr       1.76200000       1.76200000      10.57200000
Ni       0.00000000       0.00000000      14.09600000
Ni       0.00000000       1.76200000      15.85800000
Mo       1.76200000       0.00000000      15.85800000
Cr       1.76200000       1.76200000      14.09600000
Ni       0.00000000       0.00000000      17.62000000
Ni       0.00000000       1.76200000      19.38200000
Fe       1.76200000       0.00000000      19.38200000
Ni       1.76200000       1.76200000      17.62000000
Ni       0.00000000       0.00000000      21.14400000
Fe       0.00000000       1.76200000      22.90600000
Ni       1.76200000       0.00000000      22.90600000
Ni       1.76200000       1.76200000      21.14400000
Ni       0.00000000       0.00000000      24.66800000
Ni       0.00000000       1.76200000      26.43000000
Mo       1.76200000       0.00000000      26.43000000
Ni       1.76200000       1.76200000      24.66800000
Ni       0.00000000       3.52400000       0.00000000
Mo       0.00000000       5.28600000       1.76200000
Ni       1.76200000       3.52400000       1.76200000
Ni       1.76200000       5.28600000       0.00000000
Ni       0.00000000       3.52400000       3.52400000
Ni       0.00000000       5.28600000       5.28600000
Ni       1.76200000       3.52400000       5.28600000
Mo       1.76200000       5.28600000       3.52400000
Ni       0.00000000       3.52400000       7.04800000
Ni       0.00000000       5.28600000       8.81000000
Fe       1.76200000       3.52400000       8.81000000
Ni       1.76200000       5.28600000       7.04800000
Ni       0.00000000       3.52400000      10.57200000
Ni       0.00000000       5.28600000      12.33400000
Fe       1.76200000       3.52400000      12.33400000
Ni       1.76200000       5.28600000      10.57200000
Ni       0.00000000       3.52400000      14.09600000
Ni       0.00000000       5.28600000      15.85800000
Ni       1.76200000       3.52400000      15.85800000
Ni       1.76200000       5.28600000      14.09600000
Ni       0.00000000       3.52400000      17.62000000
Ni       0.00000000       5.28600000      19.38200000
Ni       1.76200000       3.52400000      19.38200000
Mo       1.76200000       5.28600000      17.62000000
Cr       0.00000000       3.52400000      21.14400000
Al       0.00000000       5.28600000      22.90600000
Ni       1.76200000       3.52400000      22.90600000
Ni       1.76200000       5.28600000      21.14400000
Ni       0.00000000       3.52400000      24.66800000
Ni       0.00000000       5.28600000      26.43000000
Ni       1.76200000       3.52400000      26.43000000
Mo       1.76200000       5.28600000      24.66800000
Ni       0.00000000       7.04800000       0.00000000
Ni       0.00000000       8.81000000       1.76200000
Ni       1.76200000       7.04800000       1.76200000
Ni       1.76200000       8.81000000       0.00000000
Cr       0.00000000       7.04800000       3.52400000
Ni       0.00000000       8.81000000       5.28600000
Mo       1.76200000       7.04800000       5.28600000
Ni       1.76200000       8.81000000       3.52400000
Cr       0.00000000       7.04800000       7.04800000
Mo       0.00000000       8.81000000       8.81000000
Ni       1.76200000       7.04800000       8.81000000
Cr       1.76200000       8.81000000       7.04800000
Mo       0.00000000       7.04800000      10.57200000
Mo       0.00000000       8.81000000      12.33400000
Cr       1.76200000       7.04800000      12.33400000
Cr       1.76200000       8.81000000      10.57200000
Ni       0.00000000       7.04800000      14.09600000
Ni       0.00000000       8.81000000      15.85800000
Cr       1.76200000       7.04800000      15.85800000
Ni       1.76200000       8.81000000      14.09600000
Ni       0.00000000       7.04800000      17.62000000
Ni       0.00000000       8.81000000      19.38200000
Ni       1.76200000       7.04800000      19.38200000
Ni       1.76200000       8.81000000      17.62000000
Ni       0.00000000       7.04800000      21.14400000
Ni       0.00000000       8.81000000      22.90600000
Mo       1.76200000       7.04800000      22.90600000
Ni       1.76200000       8.81000000      21.14400000
Ni       0.00000000       7.04800000      24.66800000
Mo       0.00000000       8.81000000      26.43000000
Ni       1.76200000       7.04800000      26.43000000
Ni       1.76200000       8.81000000      24.66800000
Ni       0.00000000      10.57200000       0.00000000
Ni       0.00000000      12.33400000       1.76200000
Ni       1.76200000      10.57200000       1.76200000
Ni       1.76200000      12.33400000       0.00000000
Ni       0.00000000      10.57200000       3.52400000
Cr       0.00000000      12.33400000       5.28600000
Ni       1.76200000      10.57200000       5.28600000
Ni       1.76200000      12.33400000       3.52400000
Mo       0.00000000      10.57200000       7.04800000
Ni       0.00000000      12.33400000       8.81000000
Ni       1.76200000      10.57200000       8.81000000
Ni       1.76200000      12.33400000       7.04800000
Ni       0.00000000      10.57200000      10.57200000
Ni       0.00000000      12.33400000      12.33400000
Ni       1.76200000      10.57200000      12.33400000
Ni       1.76200000      12.33400000      10.57200000
Ni       0.00000000      10.57200000      14.09600000
Cr       0.00000000      12.33400000      15.85800000
Ni       1.76200000      10.57200000      15.85800000
Ni       1.76200000      12.33400000      14.09600000
Ni       0.00000000      10.57200000      17.62000000
Mo       0.00000000      12.33400000      19.38200000
Ni       1.76200000      10.57200000      19.38200000
Ni       1.76200000      12.33400000      17.62000000
Ni       0.00000000      10.57200000      21.14400000
Ni       0.00000000      12.33400000      22.90600000
Ni       1.76200000      10.57200000      22.90600000
Ni       1.76200000      12.33400000      21.14400000
Ni       0.00000000      10.57200000      24.66800000
Ni       0.00000000      12.33400000      26.43000000
Fe       1.76200000      10.57200000      26.43000000
Ni       1.76200000      12.33400000      24.66800000
Ni       0.00000000      14.09600000       0.00000000
Ni       0.00000000      15.85800000       1.76200000
Ni       1.76200000      14.09600000       1.76200000
C        1.76200000      15.85800000       0.00000000
Fe       0.00000000      14.09600000       3.52400000
Ni       0.00000000      15.85800000       5.28600000
Ni       1.76200000      14.09600000       5.28600000
Ni       1.76200000      15.85800000       3.52400000
Ni       0.00000000      14.09600000       7.04800000
Cr       0.00000000      15.85800000       8.81000000
Ni       1.76200000      14.09600000       8.81000000
Ni       1.76200000      15.85800000       7.04800000
Fe       0.00000000      14.09600000      10.57200000
Ni       0.00000000      15.85800000      12.33400000
Ni       1.76200000      14.09600000      12.33400000
Ni       1.76200000      15.85800000      10.57200000
Ni       0.00000000      14.09600000      14.09600000
Ni       0.00000000      15.85800000      15.85800000
Ni       1.76200000      14.09600000      15.85800000
Ni       1.76200000      15.85800000      14.09600000
Cr       0.00000000      14.09600000      17.62000000
Ni       0.00000000      15.85800000      19.38200000
Ni       1.76200000      14.09600000      19.38200000
Ni       1.76200000      15.85800000      17.62000000
Ni       0.00000000      14.09600000      21.14400000
Cr       0.00000000      15.85800000      22.90600000
Cr       1.76200000      14.09600000      22.90600000
Mo       1.76200000      15.85800000      21.14400000
Ni       0.00000000      14.09600000      24.66800000
Ni       0.00000000      15.85800000      26.43000000
Ni       1.76200000      14.09600000      26.43000000
Ni       1.76200000      15.85800000      24.66800000
Ni       3.52400000       0.00000000       0.00000000
Ni       3.52400000       1.76200000       1.76200000
Ni       5.28600000       0.00000000       1.76200000
Ni       5.28600000       1.76200000       0.00000000
Ni       3.52400000       0.00000000       3.52400000
Ni       3.52400000       1.76200000       5.28600000
Ni       5.28600000       0.00000000       5.28600000
Ni       5.28600000       1.76200000       3.52400000
Ni       3.52400000       0.00000000       7.04800000
Ni       3.52400000       1.76200000       8.81000000
Ni       5.28600000       0.00000000       8.81000000
Ni       5.28600000       1.76200000       7.04800000
Mo       3.52400000       0.00000000      10.57200000
Mo       3.52400000       1.76200000      12.33400000
Ni       5.28600000       0.00000000      12.33400000
Cr       5.28600000       1.76200000      10.57200000
Al       3.52400000       0.00000000      14.09600000
Ni       3.52400000       1.76200000      15.85800000
Ni       5.28600000       0.00000000      15.85800000
Ni       5.28600000       1.76200000      14.09600000
Mo       3.52400000       0.00000000      17.62000000
Ni       3.52400000       1.76200000      19.38200000
Ni       5.28600000       0.00000000      19.38200000
Ni       5.28600000       1.76200000      17.62000000
Ni       3.52400000       0.00000000      21.14400000
Mo       3.52400000       1.76200000      22.90600000
Ni       5.28600000       0.00000000      22.90600000
Ni       5.28600000       1.76200000      21.14400000
Ni       3.52400000       0.00000000      24.66800000
Ni       3.52400000       1.76200000      26.43000000
Ni       5.28600000       0.00000000      26.43000000
Ni       5.28600000       1.76200000      24.66800000
Fe       3.52400000       3.52400000       0.00000000
Ni       3.52400000       5.28600000       1.76200000
Ni       5.28600000       3.52400000       1.76200000
Ni       5.28600000       5.28600000       0.00000000
Ni       3.52400000       3.52400000       3.52400000
Ni       3.52400000       5.28600000       5.28600000
Ni       5.28600000       3.52400000       5.28600000
Ni       5.28600000       5.28600000       3.52400000
Ni       3.52400000       3.52400000       7.04800000
Ni       3.52400000       5.28600000       8.81000000
Ni       5.28600000       3.52400000       8.81000000
Mo       5.28600000       5.28600000       7.04800000
Ni       3.52400000       3.52400000      10.57200000
Ni       3.52400000       5.28600000      12.33400000
Ni       5.28600000       3.52400000      12.33400000
Ni       5.28600000       5.28600000      10.57200000
Cr       3.52400000       3.52400000      14.09600000
Fe       3.52400000       5.28600000      15.85800000
Ni       5.28600000       3.52400000      15.85800000
Cr       5.28600000       5.28600000      14.09600000
Ni       3.52400000       3.52400000      17.62000000
Ni       3.52400000       5.28600000      19.38200000
Ni       5.28600000       3.52400000      19.38200000
Ni       5.28600000       5.28600000      17.62000000
Ni       3.52400000       3.52400000      21.14400000
Ni       3.52400000       5.28600000      22.90600000
Cr       5.28600000       3.52400000      22.90600000
Ni       5.28600000       5.28600000      21.14400000
Mo       3.52400000       3.52400000      24.66800000
Ni       3.52400000       5.28600000      26.43000000
Cr       5.28600000       3.52400000      26.43000000
Ni       5.28600000       5.28600000      24.66800000
Ni       3.52400000       7.04800000       0.00000000
Ni       3.52400000       8.81000000       1.76200000
Ni       5.28600000       7.04800000       1.76200000
Ni       5.28600000       8.81000000       0.00000000
Fe       3.52400000       7.04800000       3.52400000
Ni       3.52400000       8.81000000       5.28600000
Ni       5.28600000       7.04800000       5.28600000
Ni       5.28600000       8.81000000       3.52400000
Ni       3.52400000       7.04800000       7.04800000
Ni       3.52400000       8.81000000       8.81000000
Cr       5.28600000       7.04800000       8.81000000
Ni       5.28600000       8.81000000       7.04800000
Ni       3.52400000       7.04800000      10.57200000
Cr       3.52400000       8.81000000      12.33400000
Ni       5.28600000       7.04800000      12.33400000
Ni       5.28600000       8.81000000      10.57200000
Ni       3.52400000       7.04800000      14.09600000
Ni       3.52400000       8.81000000      15.85800000
Ni       5.28600000       7.04800000      15.85800000
Ni       5.28600000       8.81000000      14.09600000
Ni       3.52400000       7.04800000      17.62000000
Ni       3.52400000       8.81000000      19.38200000
Ni       5.28600000       7.04800000      19.38200000
Ni       5.28600000       8.81000000      17.62000000
Ni       3.52400000       7.04800000      21.14400000
Cr       3.52400000       8.81000000      22.90600000
Ni       5.28600000       7.04800000      22.90600000
Ni       5.28600000       8.81000000      21.14400000
Ni       3.52400000       7.04800000      24.66800000
Cr       3.52400000       8.81000000      26.43000000
Ni       5.28600000       7.04800000      26.43000000
Ni       5.28600000       8.81000000      24.66800000
Ni       3.52400000      10.57200000       0.00000000
Ni       3.52400000      12.33400000       1.76200000
Ni       5.28600000      10.57200000       1.76200000
Ni       5.28600000      12.33400000       0.00000000
Ni       3.52400000      10.57200000       3.52400000
Mo       3.52400000      12.33400000       5.28600000
Ni       5.28600000      10.57200000       5.28600000
Ni       5.28600000      12.33400000       3.52400000
Ni       3.52400000      10.57200000       7.04800000
Ni       3.52400000      12.33400000       8.81000000
Cr       5.28600000      10.57200000       8.81000000
Ni       5.28600000      12.33400000       7.04800000
Mo       3.52400000      10.57200000      10.57200000
Ni       3.52400000      12.33400000      12.33400000
Ni       5.28600000      10.57200000      12.33400000
Ni       5.28600000      12.33400000      10.57200000
Ni       3.52400000      10.57200000      14.09600000
Ni       3.52400000      12.33400000      15.85800000
Ni       5.28600000      10.57200000      15.85800000
Ni       5.28600000      12.33400000      14.09600000
Ni       3.52400000      10.57200000      17.62000000
Mo       3.52400000      12.33400000      19.38200000
Ni       5.28600000      10.57200000      19.38200000
Ni       5.28600000      12.33400000      17.62000000
Ni       3.52400000      10.57200000      21.14400000
Mo       3.52400000      12.33400000      22.90600000
Ni       5.28600000      10.57200000      22.90600000
Ni       5.28600000      12.33400000      21.14400000
Ni       3.52400000      10.57200000      24.66800000
Ni       3.52400000      12.33400000      26.43000000
Ni       5.28600000      10.57200000      26.43000000
Ni       5.28600000      12.33400000      24.66800000
Ni       3.52400000      14.09600000       0.00000000
Ni       3.52400000      15.85800000       1.76200000
Al       5.28600000      14.09600000       1.76200000
Ni       5.28600000      15.85800000       0.00000000
Ni       3.52400000      14.09600000       3.52400000
Ni       3.52400000      15.85800000       5.28600000
Ni       5.28600000      14.09600000       5.28600000
Ni       5.28600000      15.85800000       3.52400000
Ni       3.52400000      14.09600000       7.04800000
Ni       3.52400000      15.85800000       8.81000000
Mo       5.28600000      14.09600000       8.81000000
Ni       5.28600000      15.85800000       7.04800000
Ni       3.52400000      14.09600000      10.57200000
Mo       3.52400000      15.85800000      12.33400000
Mo       5.28600000      14.09600000      12.33400000
Ni       5.28600000      15.85800000      10.57200000
Cr       3.52400000      14.09600000      14.09600000
Cr       3.52400000      15.85800000      15.85800000
Ni       5.28600000      14.09600000      15.85800000
Ni       5.28600000      15.85800000      14.09600000
Ni       3.52400000      14.09600000      17.62000000
Ni       3.52400000      15.85800000      19.38200000
Cr       5.28600000      14.09600000      19.38200000
Cr       5.28600000      15.85800000      17.62000000
Ni       3.52400000      14.09600000      21.14400000
Ni       3.52400000      15.85800000      22.90600000
Ni       5.28600000      14.09600000      22.90600000
Ni       5.28600000      15.85800000      21.14400000
Ni       3.52400000      14.09600000      24.66800000
Ni       3.52400000      15.85800000      26.43000000
Ni       5.28600000      14.09600000      26.43000000
Ni       5.28600000      15.85800000      24.66800000
Cr       7.04800000       0.00000000       0.00000000
Mo       7.04800000       1.76200000       1.76200000
Cr       8.81000000       0.00000000       1.76200000
Mo       8.81000000       1.76200000       0.00000000
Ni       7.04800000       0.00000000       3.52400000
Ni       7.04800000       1.76200000       5.28600000
Ni       8.81000000       0.00000000       5.28600000
Ni       8.81000000       1.76200000       3.52400000
Ni       7.04800000       0.00000000       7.04800000
Ni       7.04800000       1.76200000       8.81000000
Ni       8.81000000       0.00000000       8.81000000
Ni       8.81000000       1.76200000       7.04800000
Mo       7.04800000       0.00000000      10.57200000
Ni       7.04800000       1.76200000      12.33400000
Cr       8.81000000       0.00000000      12.33400000
Ni       8.81000000       1.76200000      10.57200000
Ni       7.04800000       0.00000000      14.09600000
Ni       7.04800000       1.76200000      15.85800000
Ni       8.81000000       0.00000000      15.85800000
Ni       8.81000000       1.76200000      14.09600000
Cr       7.04800000       0.00000000      17.62000000
Ni       7.04800000       1.76200000      19.38200000
Ni       8.81000000       0.00000000      19.38200000
Ni       8.81000000       1.76200000      17.62000000
Ni       7.04800000       0.00000000      21.14400000
Ni       7.04800000       1.76200000      22.90600000
Ni       8.81000000       0.00000000      22.90600000
Ni       8.81000000       1.76200000      21.14400000
Ni       7.04800000       0.00000000      24.66800000
Cr       7.04800000       1.76200000      26.43000000
Ni       8.81000000       0.00000000      26.43000000
Ni       8.81000000       1.76200000      24.66800000
Ni       7.04800000       3.52400000       0.00000000
Ni       7.04800000       5.28600000       1.76200000
Ni       8.81000000       3.52400000       1.76200000
Ni       8.81000000       5.28600000       0.00000000
Ni       7.04800000       3.52400000       3.52400000
Ni       7.04800000       5.28600000       5.28600000
Mo       8.81000000       3.52400000       5.28600000
Ni       8.81000000       5.28600000       3.52400000
Fe       7.04800000       3.52400000       7.04800000
Ni       7.04800000       5.28600000       8.81000000
Ni       8.81000000       3.52400000       8.81000000
Ni       8.81000000       5.28600000       7.04800000
Ni       7.04800000       3.52400000      10.57200000
Ni       7.04800000       5.28600000      12.33400000
Ni       8.81000000       3.52400000      12.33400000
Ni       8.81000000       5.28600000      10.57200000
Ni       7.04800000       3.52400000      14.09600000
Ni       7.04800000       5.28600000      15.85800000
Ni       8.81000000       3.52400000      15.85800000
Ni       8.81000000       5.28600000      14.09600000
Ni       7.04800000       3.52400000      17.62000000
Ni       7.04800000       5.28600000      19.38200000
Ni       8.81000000       3.52400000      19.38200000
Mo       8.81000000       5.28600000      17.62000000
Ni       7.04800000       3.52400000      21.14400000
Mo       7.04800000       5.28600000      22.90600000
Ni       8.81000000       3.52400000      22.90600000
Ni       8.81000000       5.28600000      21.14400000
Mo       7.04800000       3.52400000      24.66800000
Ni       7.04800000       5.28600000      26.43000000
Ni       8.81000000       3.52400000      26.43000000
Ni       8.81000000       5.28600000      24.66800000
Ni       7.04800000       7.04800000       0.00000000
Ni       7.04800000       8.81000000       1.76200000
Ni       8.81000000       7.04800000       1.76200000
Ni       8.81000000       8.81000000       0.00000000
Ni       7.04800000       7.04800000       3.52400000
Ni       7.04800000       8.81000000       5.28600000
Mo       8.81000000       7.04800000       5.28600000
Mo       8.81000000       8.81000000       3.52400000
Ni       7.04800000       7.04800000       7.04800000
Ni       7.04800000       8.81000000       8.81000000
Mo       8.81000000       7.04800000       8.81000000
Ni       8.81000000       8.81000000       7.04800000
Ni       7.04800000       7.04800000      10.57200000
Ni       7.04800000       8.81000000      12.33400000
Ni       8.81000000       7.04800000      12.33400000
Mo       8.81000000       8.81000000      10.57200000
Fe       7.04800000       7.04800000      14.09600000
Ni       7.04800000       8.81000000      15.85800000
Ni       8.81000000       7.04800000      15.85800000
Ni       8.81000000       8.81000000      14.09600000
Ni       7.04800000       7.04800000      17.62000000
Ni       7.04800000       8.81000000      19.38200000
Fe       8.81000000       7.04800000      19.38200000
Ni       8.81000000       8.81000000      17.62000000
Fe       7.04800000       7.04800000      21.14400000
Ni       7.04800000       8.81000000      22.90600000
Ni       8.81000000       7.04800000      22.90600000
Ni       8.81000000       8.81000000      21.14400000
Ni       7.04800000       7.04800000      24.66800000
Ni       7.04800000       8.81000000      26.43000000
Mo       8.81000000       7.04800000      26.43000000
Cr       8.81000000       8.81000000      24.66800000
Ni       7.04800000      10.57200000       0.00000000
Ni       7.04800000      12.33400000       1.76200000
Ni       8.81000000      10.57200000       1.76200000
Fe       8.81000000      12.33400000       0.00000000
Al       7.04800000      10.57200000       3.52400000
Cr       7.04800000      12.33400000       5.28600000
Fe       8.81000000      10.57200000       5.28600000
Mo       8.81000000      12.33400000       3.52400000
Ni       7.04800000      10.57200000       7.04800000
Ni       7.04800000      12.33400000       8.81000000
Ni       8.81000000      10.57200000       8.81000000
Ni       8.81000000      12.33400000       7.04800000
Ni       7.04800000      10.57200000      10.57200000
Ni       7.04800000      12.33400000      12.33400000
Mo       8.81000000      10.57200000      12.33400000
Ni       8.81000000      12.33400000      10.57200000
Cr       7.04800000      10.57200000      14.09600000
Mo       7.04800000      12.33400000      15.85800000
Cr       8.81000000      10.57200000      15.85800000
Ni       8.81000000      12.33400000      14.09600000
Ni       7.04800000      10.57200000      17.62000000
Ni       7.04800000      12.33400000      19.38200000
Ni       8.81000000      10.57200000      19.38200000
Ni       8.81000000      12.33400000      17.62000000
Ni       7.04800000      10.57200000      21.14400000
Ni       7.04800000      12.33400000      22.90600000
Mo       8.81000000      10.57200000      22.90600000
Ni       8.81000000      12.33400000      21.14400000
Ni       7.04800000      10.57200000      24.66800000
Ni       7.04800000      12.33400000      26.43000000
Ni       8.81000000      10.57200000      26.43000000
Ni       8.81000000      12.33400000      24.66800000
Fe       7.04800000      14.09600000       0.00000000
Ni       7.04800000      15.85800000       1.76200000
Ni       8.81000000      14.09600000       1.76200000
Ni       8.81000000      15.85800000       0.00000000
Ni       7.04800000      14.09600000       3.52400000
Ni       7.04800000      15.85800000       5.28600000
Ni       8.81000000      14.09600000       5.28600000
Ni       8.81000000      15.85800000       3.52400000
Ni       7.04800000      14.09600000       7.04800000
Fe       7.04800000      15.85800000       8.81000000
Ni       8.81000000      14.09600000       8.81000000
Mo       8.81000000      15.85800000       7.04800000
Ni       7.04800000      14.09600000      10.57200000
Ni       7.04800000      15.85800000      12.33400000
Ni       8.81000000      14.09600000      12.33400000
Cr       8.81000000      15.85800000      10.57200000
Cr       7.04800000      14.09600000      14.09600000
Mo       7.04800000      15.85800000      15.85800000
Ni       8.81000000      14.09600000      15.85800000
Ni       8.81000000      15.85800000      14.09600000
Ni       7.04800000      14.09600000      17.62000000
Ni       7.04800000      15.85800000      19.38200000
Al       8.81000000      14.09600000      19.38200000
Mo       8.81000000      15.85800000      17.62000000
Ni       7.04800000      14.09600000      21.14400000
Fe       7.04800000      15.85800000      22.90600000
Mo       8.81000000      14.09600000      22.90600000
Cr       8.81000000      15.85800000      21.14400000
Ni       7.04800000      14.09600000      24.66800000
Cr       7.04800000      15.85800000      26.43000000
Ni       8.81000000      14.09600000      26.43000000
Ni       8.81000000      15.85800000      24.66800000
Cr       0.00000000       0.00000000      32.96000000
Cr       0.00000000       0.00000000      30.32354000
Cr       2.64300000       1.46833333      37.49000000
Cr       2.64300000       1.46833333      34.85354000
Cr       0.00000000       2.93666667      28.43000000
Cr       0.00000000       2.93666667      39.38354000
Cr       0.00000000       0.00000000      37.11854000
Cr       0.00000000       0.00000000      39.75500000
Cr       2.64300000       1.46833333      41.64854000
Cr       2.64300000       1.46833333      30.69500000
Cr       0.00000000       2.93666667      32.58854000
Cr       0.00000000       2.93666667      35.22500000
O        1.61751600       0.00000000      31.64177000
O        9.76324200       1.34793000      31.64177000
O        1.83424200       3.05707000      31.64177000
O        4.26051600       1.46833333      36.17177000
O        1.83424200       2.81626333      36.17177000
O        1.83424200       0.12040333      36.17177000
O        1.61751600       2.93666667      40.70177000
O        9.76324200       4.28459667      40.70177000
O        9.76324200       1.58873667      40.70177000
O        3.66848400       0.00000000      38.43677000
O        8.73775800       3.05707000      38.43677000
O        0.80875800       1.34793000      38.43677000
O        1.02548400       1.46833333      29.37677000
O        3.45175800       0.12040333      29.37677000
O        3.45175800       2.81626333      29.37677000
O        8.95448400       2.93666667      33.90677000
O        0.80875800       1.58873667      33.90677000
O        0.80875800       4.28459667      33.90677000
Cr       0.00000000       0.00000000      46.55000000
Cr       0.00000000       0.00000000      43.91354000
Cr       2.64300000       1.46833333      51.08000000
Cr       2.64300000       1.46833333      48.44354000
Cr       0.00000000       2.93666667      42.02000000
Cr       0.00000000       2.93666667      52.97354000
Cr       0.00000000       0.00000000      50.70854000
Cr       0.00000000       0.00000000      53.34500000
Cr       2.64300000       1.46833333      55.23854000
Cr       2.64300000       1.46833333      44.28500000
Cr       0.00000000       2.93666667      46.17854000
Cr       0.00000000       2.93666667      48.81500000
O        1.61751600       0.00000000      45.23177000
O        9.76324200       1.34793000      45.23177000
O        1.83424200       3.05707000      45.23177000
O        4.26051600       1.46833333      49.76177000
O        1.83424200       2.81626333      49.76177000
O        1.83424200       0.12040333      49.76177000
O        1.61751600       2.93666667      54.29177000
O        9.76324200       4.28459667      54.29177000
O        9.76324200       1.58873667      54.29177000
O        3.66848400       0.00000000      52.02677000
O        8.73775800       3.05707000      52.02677000
O        0.80875800       1.34793000      52.02677000
O        1.02548400       1.46833333      42.96677000
O        3.45175800       0.12040333      42.96677000
O        3.45175800       2.81626333      42.96677000
O        8.95448400       2.93666667      47.49677000
O        0.80875800       1.58873667      47.49677000
O        0.80875800       4.28459667      47.49677000
Cr       7.92900000       4.40500000      32.96000000
Cr       7.92900000       4.40500000      30.32354000
Cr       0.00000000       5.87333333      37.49000000
Cr       0.00000000       5.87333333      34.85354000
Cr       7.92900000       7.34166667      28.43000000
Cr       7.92900000       7.34166667      39.38354000
Cr       7.92900000       4.40500000      37.11854000
Cr       7.92900000       4.40500000      39.75500000
Cr       0.00000000       5.87333333      41.64854000
Cr       0.00000000       5.87333333      30.69500000
Cr       7.92900000       7.34166667      32.58854000
Cr       7.92900000       7.34166667      35.22500000
O        9.54651600       4.40500000      31.64177000
O        7.12024200       5.75293000      31.64177000
O        9.76324200       7.46207000      31.64177000
O        1.61751600       5.87333333      36.17177000
O        9.76324200       7.22126333      36.17177000
O        9.76324200       4.52540333      36.17177000
O        9.54651600       7.34166667      40.70177000
O        7.12024200       8.68959667      40.70177000
O        7.12024200       5.99373667      40.70177000
O        1.02548400       4.40500000      38.43677000
O        6.09475800       7.46207000      38.43677000
O        8.73775800       5.75293000      38.43677000
O        8.95448400       5.87333333      29.37677000
O        0.80875800       4.52540333      29.37677000
O        0.80875800       7.22126333      29.37677000
O        6.31148400       7.34166667      33.90677000
O        8.73775800       5.99373667      33.90677000
O        8.73775800       8.68959667      33.90677000
Cr       7.92900000       4.40500000      46.55000000
Cr       7.92900000       4.40500000      43.91354000
Cr       0.00000000       5.87333333      51.08000000
Cr       0.00000000       5.87333333      48.44354000
Cr       7.92900000       7.34166667      42.02000000
Cr       7.92900000       7.34166667      52.97354000
Cr       7.92900000       4.40500000      50.70854000
Cr       7.92900000       4.40500000      53.34500000
Cr       0.00000000       5.87333333      55.23854000
Cr       0.00000000       5.87333333      44.28500000
Cr       7.92900000       7.34166667      46.17854000
Cr       7.92900000       7.34166667      48.81500000
O        9.54651600       4.40500000      45.23177000
O        7.12024200       5.75293000      45.23177000
O        9.76324200       7.46207000      45.23177000
O        1.61751600       5.87333333      49.76177000
O        9.76324200       7.22126333      49.76177000
O        9.76324200       4.52540333      49.76177000
O        9.54651600       7.34166667      54.29177000
O        7.12024200       8.68959667      54.29177000
O        7.12024200       5.99373667      54.29177000
O        1.02548400       4.40500000      52.02677000
O        6.09475800       7.46207000      52.02677000
O        8.73775800       5.75293000      52.02677000
O        8.95448400       5.87333333      42.96677000
O        0.80875800       4.52540333      42.96677000
O        0.80875800       7.22126333      42.96677000
O        6.31148400       7.34166667      47.49677000
O        8.73775800       5.99373667      47.49677000
O        8.73775800       8.68959667      47.49677000
Cr       5.28600000       8.81000000      32.96000000
Cr       5.28600000       8.81000000      30.32354000
Cr       7.92900000      10.27833333      37.49000000
Cr       7.92900000      10.27833333      34.85354000
Cr       5.28600000      11.74666667      28.43000000
Cr       5.28600000      11.74666667      39.38354000
Cr       5.28600000       8.81000000      37.11854000
Cr       5.28600000       8.81000000      39.75500000
Cr       7.92900000      10.27833333      41.64854000
Cr       7.92900000      10.27833333      30.69500000
Cr       5.28600000      11.74666667      32.58854000
Cr       5.28600000      11.74666667      35.22500000
O        6.90351600       8.81000000      31.64177000
O        4.47724200      10.15793000      31.64177000
O        7.12024200      11.86707000      31.64177000
O        9.54651600      10.27833333      36.17177000
O        7.12024200      11.62626333      36.17177000
O        7.12024200       8.93040333      36.17177000
O        6.90351600      11.74666667      40.70177000
O        4.47724200      13.09459667      40.70177000
O        4.47724200      10.39873667      40.70177000
O        8.95448400       8.81000000      38.43677000
O        3.45175800      11.86707000      38.43677000
O        6.09475800      10.15793000      38.43677000
O        6.31148400      10.27833333      29.37677000
O        8.73775800       8.93040333      29.37677000
O        8.73775800      11.62626333      29.37677000
O        3.66848400      11.74666667      33.90677000
O        6.09475800      10.39873667      33.90677000
O        6.09475800      13.09459667      33.90677000
Cr       5.28600000       8.81000000      46.55000000
Cr       5.28600000       8.81000000      43.91354000
Cr       7.92900000      10.27833333      51.08000000
Cr       7.92900000      10.27833333      48.44354000
Cr       5.28600000      11.74666667      42.02000000
Cr       5.28600000      11.74666667      52.97354000
Cr       5.28600000       8.81000000      50.70854000
Cr       5.28600000       8.81000000      53.34500000
Cr       7.92900000      10.27833333      55.23854000
Cr       7.92900000      10.27833333      44.28500000
Cr       5.28600000      11.74666667      46.17854000
Cr       5.28600000      11.74666667      48.81500000
O        6.90351600       8.81000000      45.23177000
O        4.47724200      10.15793000      45.23177000
O        7.12024200      11.86707000      45.23177000
O        9.54651600      10.27833333      49.76177000
O        7.12024200      11.62626333      49.76177000
O        7.12024200       8.93040333      49.76177000
O        6.90351600      11.74666667      54.29177000
O        4.47724200      13.09459667      54.29177000
O        4.47724200      10.39873667      54.29177000
O        8.95448400       8.81000000      52.02677000
O        3.45175800      11.86707000      52.02677000
O        6.09475800      10.15793000      52.02677000
O        6.31148400      10.27833333      42.96677000
O        8.73775800       8.93040333      42.96677000
O        8.73775800      11.62626333      42.96677000
O        3.66848400      11.74666667      47.49677000
O        6.09475800      10.39873667      47.49677000
O        6.09475800      13.09459667      47.49677000
Cr       2.64300000      13.21500000      32.96000000
Cr       2.64300000      13.21500000      30.32354000
Cr       5.28600000      14.68333333      37.49000000
Cr       5.28600000      14.68333333      34.85354000
Cr       2.64300000      16.15166667      28.43000000
Cr       2.64300000      16.15166667      39.38354000
Cr       2.64300000      13.21500000      37.11854000
Cr       2.64300000      13.21500000      39.75500000
Cr       5.28600000      14.68333333      41.64854000
Cr       5.28600000      14.68333333      30.69500000
Cr       2.64300000      16.15166667      32.58854000
Cr       2.64300000      16.15166667      35.22500000
O        4.26051600      13.21500000      31.64177000
O        1.83424200      14.56293000      31.64177000
O        4.47724200      16.27207000      31.64177000
O        6.90351600      14.68333333      36.17177000
O        4.47724200      16.03126333      36.17177000
O        4.47724200      13.33540333      36.17177000
O        4.26051600      16.15166667      40.70177000
O        1.83424200      17.49959667      40.70177000
O        1.83424200      14.80373667      40.70177000
O        6.31148400      13.21500000      38.43677000
O        0.80875800      16.27207000      38.43677000
O        3.45175800      14.56293000      38.43677000
O        3.66848400      14.68333333      29.37677000
O        6.09475800      13.33540333      29.37677000
O        6.09475800      16.03126333      29.37677000
O        1.02548400      16.15166667      33.90677000
O        3.45175800      14.80373667      33.90677000
O        3.45175800      17.49959667      33.90677000
Cr       2.64300000      13.21500000      46.55000000
Cr       2.64300000      13.21500000      43.91354000
Cr       5.28600000      14.68333333      51.08000000
Cr       5.28600000      14.68333333      48.44354000
Cr       2.64300000      16.15166667      42.02000000
Cr       2.64300000      16.15166667      52.97354000
Cr       2.64300000      13.21500000      50.70854000
Cr       2.64300000      13.21500000      53.34500000
Cr       5.28600000      14.68333333      55.23854000
Cr       5.28600000      14.68333333      44.28500000
Cr       2.64300000      16.15166667      46.17854000
Cr       2.64300000      16.15166667      48.81500000
O        4.26051600      13.21500000      45.23177000
O        1.83424200      14.56293000      45.23177000
O        4.47724200      16.27207000      45.23177000
O        6.90351600      14.68333333      49.76177000
O        4.47724200      16.03126333      49.76177000
O        4.47724200      13.33540333      49.76177000
O        4.26051600      16.15166667      54.29177000
O        1.83424200      17.49959667      54.29177000
O        1.83424200      14.80373667      54.29177000
O        6.31148400      13.21500000      52.02677000
O        0.80875800      16.27207000      52.02677000
O        3.45175800      14.56293000      52.02677000
O        3.66848400      14.68333333      42.96677000
O        6.09475800      13.33540333      42.96677000
O        6.09475800      16.03126333      42.96677000
O        1.02548400      16.15166667      47.49677000
O        3.45175800      14.80373667      47.49677000
O        3.45175800      17.49959667      47.49677000
Cr       5.28600000       0.00000000      32.96000000
Cr       5.28600000       0.00000000      30.32354000
Cr       7.92900000       1.46833333      37.49000000
Cr       7.92900000       1.46833333      34.85354000
Cr       5.28600000       2.93666667      28.43000000
Cr       5.28600000       2.93666667      39.38354000
Cr       5.28600000       0.00000000      37.11854000
Cr       5.28600000       0.00000000      39.75500000
Cr       7.92900000       1.46833333      41.64854000
Cr       7.92900000       1.46833333      30.69500000
Cr       5.28600000       2.93666667      32.58854000
Cr       5.28600000       2.93666667      35.22500000
O        6.90351600       0.00000000      31.64177000
O        4.47724200       1.34793000      31.64177000
O        7.12024200       3.05707000      31.64177000
O        9.54651600       1.46833333      36.17177000
O        7.12024200       2.81626333      36.17177000
O        7.12024200       0.12040333      36.17177000
O        6.90351600       2.93666667      40.70177000
O        4.47724200       4.28459667      40.70177000
O        4.47724200       1.58873667      40.70177000
O        8.95448400       0.00000000      38.43677000
O        3.45175800       3.05707000      38.43677000
O        6.09475800       1.34793000      38.43677000
O        6.31148400       1.46833333      29.37677000
O        8.73775800       0.12040333      29.37677000
O        8.73775800       2.81626333      29.37677000
O        3.66848400       2.93666667      33.90677000
O        6.09475800       1.58873667      33.90677000
O        6.09475800       4.28459667      33.90677000
Cr       5.28600000       0.00000000      46.55000000
Cr       5.28600000       0.00000000      43.91354000
Cr       7.92900000       1.46833333      51.08000000
Cr       7.92900000       1.46833333      48.44354000
Cr       5.28600000       2.93666667      42.02000000
Cr       5.28600000       2.93666667      52.97354000
Cr       5.28600000       0.00000000      50.70854000
Cr       5.28600000       0.00000000      53.34500000
Cr       7.92900000       1.46833333      55.23854000
Cr       7.92900000       1.46833333      44.28500000
Cr       5.28600000       2.93666667      46.17854000
Cr       5.28600000       2.93666667      48.81500000
O        6.90351600       0.00000000      45.23177000
O        4.47724200       1.34793000      45.23177000
O        7.12024200       3.05707000      45.23177000
O        9.54651600       1.46833333      49.76177000
O        7.12024200       2.81626333      49.76177000
O        7.12024200       0.12040333      49.76177000
O        6.90351600       2.93666667      54.29177000
O        4.47724200       4.28459667      54.29177000
O        4.47724200       1.58873667      54.29177000
O        8.95448400       0.00000000      52.02677000
O        3.45175800       3.05707000      52.02677000
O        6.09475800       1.34793000      52.02677000
O        6.31148400       1.46833333      42.96677000
O        8.73775800       0.12040333      42.96677000
O        8.73775800       2.81626333      42.96677000
O        3.66848400       2.93666667      47.49677000
O        6.09475800       1.58873667      47.49677000
O        6.09475800       4.28459667      47.49677000
Cr       2.64300000       4.40500000      32.96000000
Cr       2.64300000       4.40500000      30.32354000
Cr       5.28600000       5.87333333      37.49000000
Cr       5.28600000       5.87333333      34.85354000
Cr       2.64300000       7.34166667      28.43000000
Cr       2.64300000       7.34166667      39.38354000
Cr       2.64300000       4.40500000      37.11854000
Cr       2.64300000       4.40500000      39.75500000
Cr       5.28600000       5.87333333      41.64854000
Cr       5.28600000       5.87333333      30.69500000
Cr       2.64300000       7.34166667      32.58854000
Cr       2.64300000       7.34166667      35.22500000
O        4.26051600       4.40500000      31.64177000
O        1.83424200       5.75293000      31.64177000
O        4.47724200       7.46207000      31.64177000
O        6.90351600       5.87333333      36.17177000
O        4.47724200       7.22126333      36.17177000
O        4.47724200       4.52540333      36.17177000
O        4.26051600       7.34166667      40.70177000
O        1.83424200       8.68959667      40.70177000
O        1.83424200       5.99373667      40.70177000
O        6.31148400       4.40500000      38.43677000
O        0.80875800       7.46207000      38.43677000
O        3.45175800       5.75293000      38.43677000
O        3.66848400       5.87333333      29.37677000
O        6.09475800       4.52540333      29.37677000
O        6.09475800       7.22126333      29.37677000
O        1.02548400       7.34166667      33.90677000
O        3.45175800       5.99373667      33.90677000
O        3.45175800       8.68959667      33.90677000
Cr       2.64300000       4.40500000      46.55000000
Cr       2.64300000       4.40500000      43.91354000
Cr       5.28600000       5.87333333      51.08000000
Cr       5.28600000       5.87333333      48.44354000
Cr       2.64300000       7.34166667      42.02000000
Cr       2.64300000       7.34166667      52.97354000
Cr       2.64300000       4.40500000      50.70854000
Cr       2.64300000       4.40500000      53.34500000
Cr       5.28600000       5.87333333      55.23854000
Cr       5.28600000       5.87333333      44.28500000
Cr       2.64300000       7.34166667      46.17854000
Cr       2.64300000       7.34166667      48.81500000
O        4.26051600       4.40500000      45.23177000
O        1.83424200       5.75293000      45.23177000
O        4.47724200       7.46207000      45.23177000
O        6.90351600       5.87333333      49.76177000
O        4.47724200       7.22126333      49.76177000
O        4.47724200       4.52540333      49.76177000
O        4.26051600       7.34166667      54.29177000
O        1.83424200       8.68959667      54.29177000
O        1.83424200       5.99373667      54.29177000
O        6.31148400       4.40500000      52.02677000
O        0.80875800       7.46207000      52.02677000
O        3.45175800       5.75293000      52.02677000
O        3.66848400       5.87333333      42.96677000
O        6.09475800       4.52540333      42.96677000
O        6.09475800       7.22126333      42.96677000
O        1.02548400       7.34166667      47.49677000
O        3.45175800       5.99373667      47.49677000
O        3.45175800       8.68959667      47.49677000
Cr       0.00000000       8.81000000      32.96000000
Cr       0.00000000       8.81000000      30.32354000
Cr       2.64300000      10.27833333      37.49000000
Cr       2.64300000      10.27833333      34.85354000
Cr       0.00000000      11.74666667      28.43000000
Cr       0.00000000      11.74666667      39.38354000
Cr       0.00000000       8.81000000      37.11854000
Cr       0.00000000       8.81000000      39.75500000
Cr       2.64300000      10.27833333      41.64854000
Cr       2.64300000      10.27833333      30.69500000
Cr       0.00000000      11.74666667      32.58854000
Cr       0.00000000      11.74666667      35.22500000
O        1.61751600       8.81000000      31.64177000
O        9.76324200      10.15793000      31.64177000
O        1.83424200      11.86707000      31.64177000
O        4.26051600      10.27833333      36.17177000
O        1.83424200      11.62626333      36.17177000
O        1.83424200       8.93040333      36.17177000
O        1.61751600      11.74666667      40.70177000
O        9.76324200      13.09459667      40.70177000
O        9.76324200      10.39873667      40.70177000
O        3.66848400       8.81000000      38.43677000
O        8.73775800      11.86707000      38.43677000
O        0.80875800      10.15793000      38.43677000
O        1.02548400      10.27833333      29.37677000
O        3.45175800       8.93040333      29.37677000
O        3.45175800      11.62626333      29.37677000
O        8.95448400      11.74666667      33.90677000
O        0.80875800      10.39873667      33.90677000
O        0.80875800      13.09459667      33.90677000
Cr       0.00000000       8.81000000      46.55000000
Cr       0.00000000       8.81000000      43.91354000
Cr       2.64300000      10.27833333      51.08000000
Cr       2.64300000      10.27833333      48.44354000
Cr       0.00000000      11.74666667      42.02000000
Cr       0.00000000      11.74666667      52.97354000
Cr       0.00000000       8.81000000      50.70854000
Cr       0.00000000       8.81000000      53.34500000
Cr       2.64300000      10.27833333      55.23854000
Cr       2.64300000      10.27833333      44.28500000
Cr       0.00000000      11.74666667      46.17854000
Cr       0.00000000      11.74666667      48.81500000
O        1.61751600       8.81000000      45.23177000
O        9.76324200      10.15793000      45.23177000
O        1.83424200      11.86707000      45.23177000
O        4.26051600      10.27833333      49.76177000
O        1.83424200      11.62626333      49.76177000
O        1.83424200       8.93040333      49.76177000
O        1.61751600      11.74666667      54.29177000
O        9.76324200      13.09459667      54.29177000
O        9.76324200      10.39873667      54.29177000
O        3.66848400       8.81000000      52.02677000
O        8.73775800      11.86707000      52.02677000
O        0.80875800      10.15793000      52.02677000
O        1.02548400      10.27833333      42.96677000
O        3.45175800       8.93040333      42.96677000
O        3.45175800      11.62626333      42.96677000
O        8.95448400      11.74666667      47.49677000
O        0.80875800      10.39873667      47.49677000
O        0.80875800      13.09459667      47.49677000
Cr       7.92900000      13.21500000      32.96000000
Cr       7.92900000      13.21500000      30.32354000
Cr       0.00000000      14.68333333      37.49000000
Cr       0.00000000      14.68333333      34.85354000
Cr       7.92900000      16.15166667      28.43000000
Cr       7.92900000      16.15166667      39.38354000
Cr       7.92900000      13.21500000      37.11854000
Cr       7.92900000      13.21500000      39.75500000
Cr       0.00000000      14.68333333      41.64854000
Cr       0.00000000      14.68333333      30.69500000
Cr       7.92900000      16.15166667      32.58854000
Cr       7.92900000      16.15166667      35.22500000
O        9.54651600      13.21500000      31.64177000
O        7.12024200      14.56293000      31.64177000
O        9.76324200      16.27207000      31.64177000
O        1.61751600      14.68333333      36.17177000
O        9.76324200      16.03126333      36.17177000
O        9.76324200      13.33540333      36.17177000
O        9.54651600      16.15166667      40.70177000
O        7.12024200      17.49959667      40.70177000
O        7.12024200      14.80373667      40.70177000
O        1.02548400      13.21500000      38.43677000
O        6.09475800      16.27207000      38.43677000
O        8.73775800      14.56293000      38.43677000
O        8.95448400      14.68333333      29.37677000
O        0.80875800      13.33540333      29.37677000
O        0.80875800      16.03126333      29.37677000
O        6.31148400      16.15166667      33.90677000
O        8.73775800      14.80373667      33.90677000
O        8.73775800      17.49959667      33.90677000
Cr       7.92900000      13.21500000      46.55000000
Cr       7.92900000      13.21500000      43.91354000
Cr       0.00000000      14.68333333      51.08000000
Cr       0.00000000      14.68333333      48.44354000
Cr       7.92900000      16.15166667      42.02000000
Cr       7.92900000      16.15166667      52.97354000
Cr       7.92900000      13.21500000      50.70854000
Cr       7.92900000      13.21500000      53.34500000
Cr       0.00000000      14.68333333      55.23854000
Cr       0.00000000      14.68333333      44.28500000
Cr       7.92900000      16.15166667      46.17854000
Cr       7.92900000      16.15166667      48.81500000
O        9.54651600      13.21500000      45.23177000
O        7.12024200      14.56293000      45.23177000
O        9.76324200      16.27207000      45.23177000
O        1.61751600      14.68333333      49.76177000
O        9.76324200      16.03126333      49.76177000
O        9.76324200      13.33540333      49.76177000
O        9.54651600      16.15166667      54.29177000
O        7.12024200      17.49959667      54.29177000
O        7.12024200      14.80373667      54.29177000
O        1.02548400      13.21500000      52.02677000
O        6.09475800      16.27207000      52.02677000
O        8.73775800      14.56293000      52.02677000
O        8.95448400      14.68333333      42.96677000
O        0.80875800      13.33540333      42.96677000
O        0.80875800      16.03126333      42.96677000
O        6.31148400      16.15166667      47.49677000
O        8.73775800      14.80373667      47.49677000
O        8.73775800      17.49959667      47.49677000
