120
Lattice="9.92 0.0 0.0 0.0 9.920000000000002 0.0 0.0 0.0 13.59" Properties=species:S:1:pos:R:3:spacegroup_kinds:I:1 spacegroup="R -3 c" unit_cell=conventional pbc="T T T"
Cr       0.00000000       0.00000000       4.71573000        0
Cr       0.00000000       0.00000000       2.07927000        0
Cr       3.30666667       1.65333333       9.24573000        0
Cr       3.30666667       1.65333333       6.60927000        0
Cr       1.65333333       3.30666667       0.18573000        0
Cr       1.65333333       3.30666667      11.13927000        0
Cr       0.00000000       0.00000000       8.87427000        0
Cr       0.00000000       0.00000000      11.51073000        0
Cr       3.30666667       1.65333333      13.40427000        0
Cr       3.30666667       1.65333333       2.45073000        0
Cr       1.65333333       3.30666667       4.34427000        0
Cr       1.65333333       3.30666667       6.98073000        0
O        1.51776000       0.00000000       3.39750000        1
O       -0.00000000       1.51776000       3.39750000        1
O        3.44224000       3.44224000       3.39750000        1
O        4.82442667       1.65333333       7.92750000        1
O        3.30666667       3.17109333       7.92750000        1
O        1.78890667       0.13557333       7.92750000        1
O        3.17109333       3.30666667      12.45750000        1
O        1.65333333       4.82442667      12.45750000        1
O        0.13557333       1.78890667      12.45750000        1
O        3.44224000       0.00000000      10.19250000        1
O       -0.00000000       3.44224000      10.19250000        1
O        1.51776000       1.51776000      10.19250000        1
O        1.78890667       1.65333333       1.13250000        1
O        3.30666667       0.13557333       1.13250000        1
O        4.82442667       3.17109333       1.13250000        1
O        0.13557333       3.30666667       5.66250000        1
O        1.65333333       1.78890667       5.66250000        1
O        3.17109333       4.82442667       5.66250000        1
Cr      -0.00000000       4.96000000       4.71573000        0
Cr      -0.00000000       4.96000000       2.07927000        0
Cr       3.30666667       6.61333333       9.24573000        0
Cr       3.30666667       6.61333333       6.60927000        0
Cr       1.65333333       8.26666667       0.18573000        0
Cr       1.65333333       8.26666667      11.13927000        0
Cr      -0.00000000       4.96000000       8.87427000        0
Cr      -0.00000000       4.96000000      11.51073000        0
Cr       3.30666667       6.61333333      13.40427000        0
Cr       3.30666667       6.61333333       2.45073000        0
Cr       1.65333333       8.26666667       4.34427000        0
Cr       1.65333333       8.26666667       6.98073000        0
O        1.51776000       4.96000000       3.39750000        1
O        0.00000000       6.47776000       3.39750000        1
O        3.44224000       8.40224000       3.39750000        1
O        4.82442667       6.61333333       7.92750000        1
O        3.30666667       8.13109333       7.92750000        1
O        1.78890667       5.09557333       7.92750000        1
O        3.17109333       8.26666667      12.45750000        1
O        1.65333333       9.78442667      12.45750000        1
O        0.13557333       6.74890667      12.45750000        1
O        3.44224000       4.96000000      10.19250000        1
O       -0.00000000       8.40224000      10.19250000        1
O        1.51776000       6.47776000      10.19250000        1
O        1.78890667       6.61333333       1.13250000        1
O        3.30666667       5.09557333       1.13250000        1
O        4.82442667       8.13109333       1.13250000        1
O        0.13557333       8.26666667       5.66250000        1
O        1.65333333       6.74890667       5.66250000        1
O        3.17109333       9.78442667       5.66250000        1
Cr       4.96000000       0.00000000       4.71573000        0
Cr       4.96000000       0.00000000       2.07927000        0
Cr       8.26666667       1.65333333       9.24573000        0
Cr       8.26666667       1.65333333       6.60927000        0
Cr       6.61333333       3.30666667       0.18573000        0
Cr       6.61333333       3.30666667      11.13927000        0
Cr       4.96000000       0.00000000       8.87427000        0
Cr       4.96000000       0.00000000      11.51073000        0
Cr       8.26666667       1.65333333      13.40427000        0
Cr       8.26666667       1.65333333       2.45073000        0
Cr       6.61333333       3.30666667       4.34427000        0
Cr       6.61333333       3.30666667       6.98073000        0
O        6.47776000       0.00000000       3.39750000        1
O        4.96000000       1.51776000       3.39750000        1
O        8.40224000       3.44224000       3.39750000        1
O        9.78442667       1.65333333       7.92750000        1
O        8.26666667       3.17109333       7.92750000        1
O        6.74890667       0.13557333       7.92750000        1
O        8.13109333       3.30666667      12.45750000        1
O        6.61333333       4.82442667      12.45750000        1
O        5.09557333       1.78890667      12.45750000        1
O        8.40224000       0.00000000      10.19250000        1
O        4.96000000       3.44224000      10.19250000        1
O        6.47776000       1.51776000      10.19250000        1
O        6.74890667       1.65333333       1.13250000        1
O        8.26666667       0.13557333       1.13250000        1
O        9.78442667       3.17109333       1.13250000        1
O        5.09557333       3.30666667       5.66250000        1
O        6.61333333       1.78890667       5.66250000        1
O        8.13109333       4.82442667       5.66250000        1
Cr       4.96000000       4.96000000       4.71573000        0
Cr       4.96000000       4.96000000       2.07927000        0
Cr       8.26666667       6.61333333       9.24573000        0
Cr       8.26666667       6.61333333       6.60927000        0
Cr       6.61333333       8.26666667       0.18573000        0
Cr       6.61333333       8.26666667      11.13927000        0
Cr       4.96000000       4.96000000       8.87427000        0
Cr       4.96000000       4.96000000      11.51073000        0
Cr       8.26666667       6.61333333      13.40427000        0
Cr       8.26666667       6.61333333       2.45073000        0
Cr       6.61333333       8.26666667       4.34427000        0
Cr       6.61333333       8.26666667       6.98073000        0
O        6.47776000       4.96000000       3.39750000        1
O        4.96000000       6.47776000       3.39750000        1
O        8.40224000       8.40224000       3.39750000        1
O        9.78442667       6.61333333       7.92750000        1
O        8.26666667       8.13109333       7.92750000        1
O        6.74890667       5.09557333       7.92750000        1
O        8.13109333       8.26666667      12.45750000        1
O        6.61333333       9.78442667      12.45750000        1
O        5.09557333       6.74890667      12.45750000        1
O        8.40224000       4.96000000      10.19250000        1
O        4.96000000       8.40224000      10.19250000        1
O        6.47776000       6.47776000      10.19250000        1
O        6.74890667       6.61333333       1.13250000        1
O        8.26666667       5.09557333       1.13250000        1
O        9.78442667       8.13109333       1.13250000        1
O        5.09557333       8.26666667       5.66250000        1
O        6.61333333       6.74890667       5.66250000        1
O        8.13109333       9.78442667       5.66250000        1
