(written by ASE)

240 atoms
2 atom types

0.0      9.9199999999999999  xlo xhi
0.0                   13.59  ylo yhi
0.0      17.181944011083267  zlo zhi

Atoms # atomic

     1   1                       0      8.8742699999999974                       0
     2   1                       0      11.510729999999995                       0
     3   1      7.4399999999999986      4.3442700000000016      15.750115343492991
     4   1      7.4399999999999986      6.9807299999999985      15.750115343492991
     5   1                       0      13.404269999999995      14.318286675902716
     6   1                       0      2.4507300000000032      14.318286675902716
     7   1                       0       4.715729999999998                       0
     8   1                       0      2.0792700000000011                       0
     9   1      7.4399999999999986     0.18573000000000361      15.750115343492991
    10   1      7.4399999999999986      11.139269999999998      15.750115343492991
    11   1                       0      9.2457299999999947      14.318286675902716
    12   1                       0      6.6092699999999995      14.318286675902716
    13   2       8.402239999999999      10.192499999999995                       0
    14   2     0.75887999999999967      10.192499999999995      15.867525294235394
    15   2      8.1988800000000008      10.192499999999995      14.200876725160315
    16   2      5.9222399999999995      5.6624999999999988      15.750115343492991
    17   2      8.1988800000000008      5.6624999999999988      14.435696626645122
    18   2      8.1988800000000008      5.6624999999999988      17.064534060340858
    19   2       8.402239999999999      1.1325000000000001      14.318286675902716
    20   2     0.75888000000000011      1.1325000000000001      13.003867959054848
    21   2     0.75888000000000011      1.1325000000000001      15.632705392750589
    22   2                 6.47776      3.3975000000000004                       0
    23   2      1.7211199999999993      3.3975000000000004      14.200876725160315
    24   2      9.1611200000000004      3.3975000000000004      15.867525294235394
    25   2      8.9577600000000022      12.457499999999998      15.750115343492991
    26   2      6.6811200000000008      12.457499999999998      17.064534060340858
    27   2      6.6811200000000008      12.457499999999998      14.435696626645122
    28   2      1.5177600000000002      7.9274999999999984      14.318286675902716
    29   2      9.1611200000000004      7.9274999999999984      15.632705392750589
    30   2      9.1611200000000004      7.9274999999999984      13.003867959054848
    31   1      2.4799999999999995      8.8742699999999974      12.886458008312447
    32   1      2.4799999999999995      11.510729999999995      12.886458008312447
    33   1 -1.6234861965522783e-15      4.3442700000000016      11.454629340722176
    34   1 -1.6234861965522783e-15      6.9807299999999985      11.454629340722176
    35   1      2.4799999999999995      13.404269999999995      10.022800673131901
    36   1      2.4799999999999995      2.4507300000000032      10.022800673131901
    37   1      2.4799999999999995       4.715729999999998      12.886458008312447
    38   1      2.4799999999999995      2.0792700000000011      12.886458008312447
    39   1 -1.6234861965522783e-15     0.18573000000000361      11.454629340722176
    40   1 -1.6234861965522783e-15      11.139269999999998      11.454629340722176
    41   1      2.4799999999999995      9.2457299999999947      10.022800673131901
    42   1      2.4799999999999995      6.6092699999999995      10.022800673131901
    43   2     0.96223999999999987      10.192499999999995      12.886458008312447
    44   2      3.2388799999999995      10.192499999999995      11.572039291464579
    45   2       0.758879999999999      10.192499999999995      9.9053907223894999
    46   2       8.402239999999999      5.6624999999999988      11.454629340722176
    47   2       0.758879999999999      5.6624999999999988      10.140210623874305
    48   2     0.75888000000000011      5.6624999999999988      12.769048057570046
    49   2     0.96224000000000043      1.1325000000000001      10.022800673131901
    50   2      3.2388799999999995      1.1325000000000001      8.7083819562840326
    51   2                 3.23888      1.1325000000000001      11.337219389979767
    52   2      8.9577600000000022      3.3975000000000004      12.886458008312447
    53   2      4.2011199999999995      3.3975000000000004      9.9053907223894999
    54   2      1.7211199999999998      3.3975000000000004      11.572039291464579
    55   2      1.5177600000000002      12.457499999999998      11.454629340722176
    56   2      9.1611200000000004      12.457499999999998      12.769048057570046
    57   2      9.1611200000000004      12.457499999999998      10.140210623874305
    58   2      3.9977600000000013      7.9274999999999984      10.022800673131901
    59   2      1.7211199999999998      7.9274999999999984      11.337219389979767
    60   2      1.7211199999999993      7.9274999999999984      8.7083819562840326
    61   1      4.9599999999999991      8.8742699999999974      8.5909720055416301
    62   1      4.9599999999999991      11.510729999999995      8.5909720055416301
    63   1                    2.48      4.3442700000000016      7.1591433379513632
    64   1                    2.48      6.9807299999999985      7.1591433379513632
    65   1      4.9599999999999991      13.404269999999995      5.7273146703610882
    66   1      4.9599999999999991      2.4507300000000032      5.7273146703610882
    67   1      4.9599999999999991       4.715729999999998      8.5909720055416301
    68   1      4.9599999999999991      2.0792700000000011      8.5909720055416301
    69   1                    2.48     0.18573000000000361      7.1591433379513632
    70   1                    2.48      11.139269999999998      7.1591433379513632
    71   1      4.9599999999999991      9.2457299999999947      5.7273146703610882
    72   1      4.9599999999999991      6.6092699999999995      5.7273146703610882
    73   2      3.4422399999999995      10.192499999999995      8.5909720055416301
    74   2      5.7188800000000013      10.192499999999995      7.2765532886937621
    75   2      3.2388800000000018      10.192499999999995      5.6099047196186831
    76   2     0.96224000000000043      5.6624999999999988      7.1591433379513632
    77   2      3.2388799999999995      5.6624999999999988      5.8447246211034916
    78   2                 3.23888      5.6624999999999988      8.4735620547992276
    79   2      3.4422399999999991      1.1325000000000001      5.7273146703610882
    80   2      5.7188800000000013      1.1325000000000001      4.4128959535132166
    81   2      5.7188800000000013      1.1325000000000001       7.041733387208958
    82   2      1.5177600000000002      3.3975000000000004      8.5909720055416301
    83   2      6.6811200000000008      3.3975000000000004      5.6099047196186831
    84   2      4.2011199999999995      3.3975000000000004      7.2765532886937621
    85   2      3.9977600000000013      12.457499999999998      7.1591433379513632
    86   2      1.7211199999999998      12.457499999999998      8.4735620547992276
    87   2      1.7211200000000004      12.457499999999998      5.8447246211034916
    88   2      6.4777599999999991      7.9274999999999984      5.7273146703610882
    89   2      4.2011199999999986      7.9274999999999984       7.041733387208958
    90   2      4.2011199999999995      7.9274999999999984      4.4128959535132166
    91   1      7.4399999999999995      8.8742699999999974      4.2954860027708142
    92   1      7.4399999999999995      11.510729999999995      4.2954860027708142
    93   1      4.9599999999999991      4.3442700000000016      2.8636573351805463
    94   1      4.9599999999999991      6.9807299999999985      2.8636573351805463
    95   1      7.4399999999999986      13.404269999999995      1.4318286675902725
    96   1      7.4399999999999986      2.4507300000000032      1.4318286675902725
    97   1      7.4399999999999995       4.715729999999998      4.2954860027708142
    98   1      7.4399999999999995      2.0792700000000011      4.2954860027708142
    99   1      4.9599999999999991     0.18573000000000361      2.8636573351805463
   100   1      4.9599999999999991      11.139269999999998      2.8636573351805463
   101   1      7.4399999999999986      9.2457299999999947      1.4318286675902725
   102   1      7.4399999999999986      6.6092699999999995      1.4318286675902725
   103   2      5.9222399999999986      10.192499999999995      4.2954860027708142
   104   2      8.1988800000000008      10.192499999999995      2.9810672859229497
   105   2      5.7188800000000013      10.192499999999995      1.3144187168478696
   106   2      3.4422400000000009      5.6624999999999988      2.8636573351805463
   107   2      5.7188799999999986      5.6624999999999988      1.5492386183326772
   108   2      5.7188799999999986      5.6624999999999988      4.1780760520284144
   109   2      5.9222399999999986      1.1325000000000001      1.4318286675902725
   110   2      8.1988800000000008      1.1325000000000001     0.11740995074240272
   111   2      8.1988800000000008      1.1325000000000001      2.7462473844381439
   112   2      3.9977599999999995      3.3975000000000004      4.2954860027708142
   113   2      9.1611200000000004      3.3975000000000004      1.3144187168478696
   114   2      6.6811200000000008      3.3975000000000004      2.9810672859229497
   115   2                 6.47776      12.457499999999998      2.8636573351805463
   116   2      4.2011199999999995      12.457499999999998      4.1780760520284144
   117   2      4.2011199999999995      12.457499999999998      1.5492386183326772
   118   2      8.9577599999999986      7.9274999999999984      1.4318286675902725
   119   2      6.6811200000000008      7.9274999999999984      2.7462473844381439
   120   2      6.6811200000000008      7.9274999999999984     0.11740995074240272
   121   1      4.9599999999999991      8.8742699999999974                       0
   122   1      4.9599999999999991      11.510729999999995                       0
   123   1      2.4799999999999991      4.3442700000000016      15.750115343492991
   124   1      2.4799999999999991      6.9807299999999985      15.750115343492991
   125   1      4.9599999999999982      13.404269999999995      14.318286675902716
   126   1      4.9599999999999982      2.4507300000000032      14.318286675902716
   127   1      4.9599999999999991       4.715729999999998                       0
   128   1      4.9599999999999991      2.0792700000000011                       0
   129   1      2.4799999999999991     0.18573000000000361      15.750115343492991
   130   1      2.4799999999999991      11.139269999999998      15.750115343492991
   131   1      4.9599999999999982      9.2457299999999947      14.318286675902716
   132   1      4.9599999999999982      6.6092699999999995      14.318286675902716
   133   2      3.4422399999999995      10.192499999999995                       0
   134   2      5.7188800000000013      10.192499999999995      15.867525294235394
   135   2                 3.23888      10.192499999999995      14.200876725160315
   136   2     0.96223999999999987      5.6624999999999988      15.750115343492991
   137   2      3.2388799999999978      5.6624999999999988      14.435696626645122
   138   2                 3.23888      5.6624999999999988      17.064534060340858
   139   2      3.4422399999999986      1.1325000000000001      14.318286675902716
   140   2      5.7188799999999977      1.1325000000000001      13.003867959054848
   141   2      5.7188799999999977      1.1325000000000001      15.632705392750589
   142   2      1.5177600000000002      3.3975000000000004                       0
   143   2      6.6811200000000008      3.3975000000000004      14.200876725160315
   144   2      4.2011199999999995      3.3975000000000004      15.867525294235394
   145   2      3.9977600000000013      12.457499999999998      15.750115343492991
   146   2      1.7211200000000009      12.457499999999998      17.064534060340858
   147   2       1.721120000000002      12.457499999999998      14.435696626645122
   148   2      6.4777599999999991      7.9274999999999984      14.318286675902716
   149   2      4.2011199999999986      7.9274999999999984      15.632705392750589
   150   2      4.2011199999999995      7.9274999999999984      13.003867959054848
   151   1      7.4399999999999995      8.8742699999999974      12.886458008312447
   152   1      7.4399999999999995      11.510729999999995      12.886458008312447
   153   1      4.9599999999999991      4.3442700000000016      11.454629340722176
   154   1      4.9599999999999991      6.9807299999999985      11.454629340722176
   155   1      7.4399999999999977      13.404269999999995      10.022800673131901
   156   1      7.4399999999999977      2.4507300000000032      10.022800673131901
   157   1      7.4399999999999995       4.715729999999998      12.886458008312447
   158   1      7.4399999999999995      2.0792700000000011      12.886458008312447
   159   1      4.9599999999999991     0.18573000000000361      11.454629340722176
   160   1      4.9599999999999991      11.139269999999998      11.454629340722176
   161   1      7.4399999999999977      9.2457299999999947      10.022800673131901
   162   1      7.4399999999999977      6.6092699999999995      10.022800673131901
   163   2      5.9222399999999995      10.192499999999995      12.886458008312447
   164   2      8.1988800000000008      10.192499999999995      11.572039291464579
   165   2      5.7188800000000013      10.192499999999995      9.9053907223894999
   166   2      3.4422400000000017      5.6624999999999988      11.454629340722176
   167   2      5.7188800000000013      5.6624999999999988      10.140210623874305
   168   2      5.7188800000000013      5.6624999999999988      12.769048057570046
   169   2      5.9222399999999995      1.1325000000000001      10.022800673131901
   170   2      8.1988799999999973      1.1325000000000001      8.7083819562840326
   171   2      8.1988799999999973      1.1325000000000001      11.337219389979767
   172   2      3.9977600000000013      3.3975000000000004      12.886458008312447
   173   2      9.1611200000000004      3.3975000000000004      9.9053907223894999
   174   2      6.6811200000000008      3.3975000000000004      11.572039291464579
   175   2                 6.47776      12.457499999999998      11.454629340722176
   176   2      4.2011199999999995      12.457499999999998      12.769048057570046
   177   2      4.2011200000000022      12.457499999999998      10.140210623874305
   178   2      8.9577600000000022      7.9274999999999984      10.022800673131901
   179   2      6.6811199999999973      7.9274999999999984      11.337219389979767
   180   2      6.6811200000000008      7.9274999999999984      8.7083819562840326
   181   1                       0      8.8742699999999974      8.5909720055416301
   182   1                       0      11.510729999999995      8.5909720055416301
   183   1      7.4399999999999995      4.3442700000000016      7.1591433379513632
   184   1      7.4399999999999995      6.9807299999999985      7.1591433379513632
   185   1 -1.6234861965522783e-15      13.404269999999995      5.7273146703610882
   186   1 -1.6234861965522783e-15      2.4507300000000032      5.7273146703610882
   187   1                       0       4.715729999999998      8.5909720055416301
   188   1                       0      2.0792700000000011      8.5909720055416301
   189   1      7.4399999999999995     0.18573000000000361      7.1591433379513632
   190   1      7.4399999999999995      11.139269999999998      7.1591433379513632
   191   1 -1.6234861965522783e-15      9.2457299999999947      5.7273146703610882
   192   1 -1.6234861965522783e-15      6.6092699999999995      5.7273146703610882
   193   2       8.402239999999999      10.192499999999995      8.5909720055416301
   194   2     0.75888000000000011      10.192499999999995      7.2765532886937621
   195   2      8.1988800000000008      10.192499999999995      5.6099047196186831
   196   2      5.9222400000000004      5.6624999999999988      7.1591433379513632
   197   2      8.1988800000000008      5.6624999999999988      5.8447246211034916
   198   2      8.1988800000000008      5.6624999999999988      8.4735620547992276
   199   2       8.402239999999999      1.1325000000000001      5.7273146703610882
   200   2     0.75887999999999789      1.1325000000000001      4.4128959535132166
   201   2       0.758879999999999      1.1325000000000001       7.041733387208958
   202   2      6.4777599999999991      3.3975000000000004      8.5909720055416301
   203   2      1.7211199999999998      3.3975000000000004      5.6099047196186831
   204   2      9.1611200000000004      3.3975000000000004      7.2765532886937621
   205   2      8.9577599999999986      12.457499999999998      7.1591433379513632
   206   2      6.6811200000000008      12.457499999999998      8.4735620547992276
   207   2      6.6811200000000008      12.457499999999998      5.8447246211034916
   208   2       1.517759999999998      7.9274999999999984      5.7273146703610882
   209   2      9.1611199999999986      7.9274999999999984       7.041733387208958
   210   2      9.1611200000000004      7.9274999999999984      4.4128959535132166
   211   1      2.4799999999999991      8.8742699999999974      4.2954860027708142
   212   1      2.4799999999999991      11.510729999999995      4.2954860027708142
   213   1 -1.6234861965522783e-15      4.3442700000000016      2.8636573351805463
   214   1 -1.6234861965522783e-15      6.9807299999999985      2.8636573351805463
   215   1      2.4799999999999982      13.404269999999995      1.4318286675902725
   216   1      2.4799999999999982      2.4507300000000032      1.4318286675902725
   217   1      2.4799999999999991       4.715729999999998      4.2954860027708142
   218   1      2.4799999999999991      2.0792700000000011      4.2954860027708142
   219   1 -1.6234861965522783e-15     0.18573000000000361      2.8636573351805463
   220   1 -1.6234861965522783e-15      11.139269999999998      2.8636573351805463
   221   1      2.4799999999999982      9.2457299999999947      1.4318286675902725
   222   1      2.4799999999999982      6.6092699999999995      1.4318286675902725
   223   2     0.96223999999999987      10.192499999999995      4.2954860027708142
   224   2                 3.23888      10.192499999999995      2.9810672859229497
   225   2     0.75888000000000011      10.192499999999995      1.3144187168478696
   226   2       8.402239999999999      5.6624999999999988      2.8636573351805463
   227   2     0.75888000000000011      5.6624999999999988      1.5492386183326772
   228   2       0.758879999999999      5.6624999999999988      4.1780760520284144
   229   2     0.96223999999999987      1.1325000000000001      1.4318286675902725
   230   2      3.2388799999999978      1.1325000000000001     0.11740995074240272
   231   2      3.2388799999999978      1.1325000000000001      2.7462473844381439
   232   2      8.9577600000000022      3.3975000000000004      4.2954860027708142
   233   2      4.2011199999999995      3.3975000000000004      1.3144187168478696
   234   2      1.7211199999999993      3.3975000000000004      2.9810672859229497
   235   2      1.5177599999999991      12.457499999999998      2.8636573351805463
   236   2      9.1611200000000004      12.457499999999998      4.1780760520284144
   237   2      9.1611200000000004      12.457499999999998      1.5492386183326772
   238   2      3.9977599999999991      7.9274999999999984      1.4318286675902725
   239   2      1.7211199999999982      7.9274999999999984      2.7462473844381439
   240   2      1.7211199999999998      7.9274999999999984     0.11740995074240272

Masses

1 51.996  # Cr
2 15.999  # O
