240
Lattice="9.92 0.0 0.0 0.0 13.59 0.0 0.0 0.0 17.181944011083267" Properties=species:S:1:pos:R:3:spacegroup_kinds:I:1 spacegroup="R -3 c" unit_cell=conventional pbc="T T T"
Cr       0.00000000       8.87427000       0.00000000        0
Cr       0.00000000      11.51073000       0.00000000        0
Cr       7.44000000       4.34427000      15.75011534        0
Cr       7.44000000       6.98073000      15.75011534        0
Cr       0.00000000      13.40427000      14.31828668        0
Cr       0.00000000       2.45073000      14.31828668        0
Cr       0.00000000       4.71573000       0.00000000        0
Cr       0.00000000       2.07927000       0.00000000        0
Cr       7.44000000       0.18573000      15.75011534        0
Cr       7.44000000      11.13927000      15.75011534        0
Cr       0.00000000       9.24573000      14.31828668        0
Cr       0.00000000       6.60927000      14.31828668        0
O        8.40224000      10.19250000       0.00000000        1
O        0.75888000      10.19250000      15.86752529        1
O        8.19888000      10.19250000      14.20087673        1
O        5.92224000       5.66250000      15.75011534        1
O        8.19888000       5.66250000      14.43569663        1
O        8.19888000       5.66250000      17.06453406        1
O        8.40224000       1.13250000      14.31828668        1
O        0.75888000       1.13250000      13.00386796        1
O        0.75888000       1.13250000      15.63270539        1
O        6.47776000       3.39750000       0.00000000        1
O        1.72112000       3.39750000      14.20087673        1
O        9.16112000       3.39750000      15.86752529        1
O        8.95776000      12.45750000      15.75011534        1
O        6.68112000      12.45750000      17.06453406        1
O        6.68112000      12.45750000      14.43569663        1
O        1.51776000       7.92750000      14.31828668        1
O        9.16112000       7.92750000      15.63270539        1
O        9.16112000       7.92750000      13.00386796        1
Cr       2.48000000       8.87427000      12.88645801        0
Cr       2.48000000      11.51073000      12.88645801        0
Cr      -0.00000000       4.34427000      11.45462934        0
Cr      -0.00000000       6.98073000      11.45462934        0
Cr       2.48000000      13.40427000      10.02280067        0
Cr       2.48000000       2.45073000      10.02280067        0
Cr       2.48000000       4.71573000      12.88645801        0
Cr       2.48000000       2.07927000      12.88645801        0
Cr      -0.00000000       0.18573000      11.45462934        0
Cr      -0.00000000      11.13927000      11.45462934        0
Cr       2.48000000       9.24573000      10.02280067        0
Cr       2.48000000       6.60927000      10.02280067        0
O        0.96224000      10.19250000      12.88645801        1
O        3.23888000      10.19250000      11.57203929        1
O        0.75888000      10.19250000       9.90539072        1
O        8.40224000       5.66250000      11.45462934        1
O        0.75888000       5.66250000      10.14021062        1
O        0.75888000       5.66250000      12.76904806        1
O        0.96224000       1.13250000      10.02280067        1
O        3.23888000       1.13250000       8.70838196        1
O        3.23888000       1.13250000      11.33721939        1
O        8.95776000       3.39750000      12.88645801        1
O        4.20112000       3.39750000       9.90539072        1
O        1.72112000       3.39750000      11.57203929        1
O        1.51776000      12.45750000      11.45462934        1
O        9.16112000      12.45750000      12.76904806        1
O        9.16112000      12.45750000      10.14021062        1
O        3.99776000       7.92750000      10.02280067        1
O        1.72112000       7.92750000      11.33721939        1
O        1.72112000       7.92750000       8.70838196        1
Cr       4.96000000       8.87427000       8.59097201        0
Cr       4.96000000      11.51073000       8.59097201        0
Cr       2.48000000       4.34427000       7.15914334        0
Cr       2.48000000       6.98073000       7.15914334        0
Cr       4.96000000      13.40427000       5.72731467        0
Cr       4.96000000       2.45073000       5.72731467        0
Cr       4.96000000       4.71573000       8.59097201        0
Cr       4.96000000       2.07927000       8.59097201        0
Cr       2.48000000       0.18573000       7.15914334        0
Cr       2.48000000      11.13927000       7.15914334        0
Cr       4.96000000       9.24573000       5.72731467        0
Cr       4.96000000       6.60927000       5.72731467        0
O        3.44224000      10.19250000       8.59097201        1
O        5.71888000      10.19250000       7.27655329        1
O        3.23888000      10.19250000       5.60990472        1
O        0.96224000       5.66250000       7.15914334        1
O        3.23888000       5.66250000       5.84472462        1
O        3.23888000       5.66250000       8.47356205        1
O        3.44224000       1.13250000       5.72731467        1
O        5.71888000       1.13250000       4.41289595        1
O        5.71888000       1.13250000       7.04173339        1
O        1.51776000       3.39750000       8.59097201        1
O        6.68112000       3.39750000       5.60990472        1
O        4.20112000       3.39750000       7.27655329        1
O        3.99776000      12.45750000       7.15914334        1
O        1.72112000      12.45750000       8.47356205        1
O        1.72112000      12.45750000       5.84472462        1
O        6.47776000       7.92750000       5.72731467        1
O        4.20112000       7.92750000       7.04173339        1
O        4.20112000       7.92750000       4.41289595        1
Cr       7.44000000       8.87427000       4.29548600        0
Cr       7.44000000      11.51073000       4.29548600        0
Cr       4.96000000       4.34427000       2.86365734        0
Cr       4.96000000       6.98073000       2.86365734        0
Cr       7.44000000      13.40427000       1.43182867        0
Cr       7.44000000       2.45073000       1.43182867        0
Cr       7.44000000       4.71573000       4.29548600        0
Cr       7.44000000       2.07927000       4.29548600        0
Cr       4.96000000       0.18573000       2.86365734        0
Cr       4.96000000      11.13927000       2.86365734        0
Cr       7.44000000       9.24573000       1.43182867        0
Cr       7.44000000       6.60927000       1.43182867        0
O        5.92224000      10.19250000       4.29548600        1
O        8.19888000      10.19250000       2.98106729        1
O        5.71888000      10.19250000       1.31441872        1
O        3.44224000       5.66250000       2.86365734        1
O        5.71888000       5.66250000       1.54923862        1
O        5.71888000       5.66250000       4.17807605        1
O        5.92224000       1.13250000       1.43182867        1
O        8.19888000       1.13250000       0.11740995        1
O        8.19888000       1.13250000       2.74624738        1
O        3.99776000       3.39750000       4.29548600        1
O        9.16112000       3.39750000       1.31441872        1
O        6.68112000       3.39750000       2.98106729        1
O        6.47776000      12.45750000       2.86365734        1
O        4.20112000      12.45750000       4.17807605        1
O        4.20112000      12.45750000       1.54923862        1
O        8.95776000       7.92750000       1.43182867        1
O        6.68112000       7.92750000       2.74624738        1
O        6.68112000       7.92750000       0.11740995        1
Cr       4.96000000       8.87427000       0.00000000        0
Cr       4.96000000      11.51073000       0.00000000        0
Cr       2.48000000       4.34427000      15.75011534        0
Cr       2.48000000       6.98073000      15.75011534        0
Cr       4.96000000      13.40427000      14.31828668        0
Cr       4.96000000       2.45073000      14.31828668        0
Cr       4.96000000       4.71573000       0.00000000        0
Cr       4.96000000       2.07927000       0.00000000        0
Cr       2.48000000       0.18573000      15.75011534        0
Cr       2.48000000      11.13927000      15.75011534        0
Cr       4.96000000       9.24573000      14.31828668        0
Cr       4.96000000       6.60927000      14.31828668        0
O        3.44224000      10.19250000       0.00000000        1
O        5.71888000      10.19250000      15.86752529        1
O        3.23888000      10.19250000      14.20087673        1
O        0.96224000       5.66250000      15.75011534        1
O        3.23888000       5.66250000      14.43569663        1
O        3.23888000       5.66250000      17.06453406        1
O        3.44224000       1.13250000      14.31828668        1
O        5.71888000       1.13250000      13.00386796        1
O        5.71888000       1.13250000      15.63270539        1
O        1.51776000       3.39750000       0.00000000        1
O        6.68112000       3.39750000      14.20087673        1
O        4.20112000       3.39750000      15.86752529        1
O        3.99776000      12.45750000      15.75011534        1
O        1.72112000      12.45750000      17.06453406        1
O        1.72112000      12.45750000      14.43569663        1
O        6.47776000       7.92750000      14.31828668        1
O        4.20112000       7.92750000      15.63270539        1
O        4.20112000       7.92750000      13.00386796        1
Cr       7.44000000       8.87427000      12.88645801        0
Cr       7.44000000      11.51073000      12.88645801        0
Cr       4.96000000       4.34427000      11.45462934        0
Cr       4.96000000       6.98073000      11.45462934        0
Cr       7.44000000      13.40427000      10.02280067        0
Cr       7.44000000       2.45073000      10.02280067        0
Cr       7.44000000       4.71573000      12.88645801        0
Cr       7.44000000       2.07927000      12.88645801        0
Cr       4.96000000       0.18573000      11.45462934        0
Cr       4.96000000      11.13927000      11.45462934        0
Cr       7.44000000       9.24573000      10.02280067        0
Cr       7.44000000       6.60927000      10.02280067        0
O        5.92224000      10.19250000      12.88645801        1
O        8.19888000      10.19250000      11.57203929        1
O        5.71888000      10.19250000       9.90539072        1
O        3.44224000       5.66250000      11.45462934        1
O        5.71888000       5.66250000      10.14021062        1
O        5.71888000       5.66250000      12.76904806        1
O        5.92224000       1.13250000      10.02280067        1
O        8.19888000       1.13250000       8.70838196        1
O        8.19888000       1.13250000      11.33721939        1
O        3.99776000       3.39750000      12.88645801        1
O        9.16112000       3.39750000       9.90539072        1
O        6.68112000       3.39750000      11.57203929        1
O        6.47776000      12.45750000      11.45462934        1
O        4.20112000      12.45750000      12.76904806        1
O        4.20112000      12.45750000      10.14021062        1
O        8.95776000       7.92750000      10.02280067        1
O        6.68112000       7.92750000      11.33721939        1
O        6.68112000       7.92750000       8.70838196        1
Cr       0.00000000       8.87427000       8.59097201        0
Cr       0.00000000      11.51073000       8.59097201        0
Cr       7.44000000       4.34427000       7.15914334        0
Cr       7.44000000       6.98073000       7.15914334        0
Cr      -0.00000000      13.40427000       5.72731467        0
Cr      -0.00000000       2.45073000       5.72731467        0
Cr       0.00000000       4.71573000       8.59097201        0
Cr       0.00000000       2.07927000       8.59097201        0
Cr       7.44000000       0.18573000       7.15914334        0
Cr       7.44000000      11.13927000       7.15914334        0
Cr      -0.00000000       9.24573000       5.72731467        0
Cr      -0.00000000       6.60927000       5.72731467        0
O        8.40224000      10.19250000       8.59097201        1
O        0.75888000      10.19250000       7.27655329        1
O        8.19888000      10.19250000       5.60990472        1
O        5.92224000       5.66250000       7.15914334        1
O        8.19888000       5.66250000       5.84472462        1
O        8.19888000       5.66250000       8.47356205        1
O        8.40224000       1.13250000       5.72731467        1
O        0.75888000       1.13250000       4.41289595        1
O        0.75888000       1.13250000       7.04173339        1
O        6.47776000       3.39750000       8.59097201        1
O        1.72112000       3.39750000       5.60990472        1
O        9.16112000       3.39750000       7.27655329        1
O        8.95776000      12.45750000       7.15914334        1
O        6.68112000      12.45750000       8.47356205        1
O        6.68112000      12.45750000       5.84472462        1
O        1.51776000       7.92750000       5.72731467        1
O        9.16112000       7.92750000       7.04173339        1
O        9.16112000       7.92750000       4.41289595        1
Cr       2.48000000       8.87427000       4.29548600        0
Cr       2.48000000      11.51073000       4.29548600        0
Cr      -0.00000000       4.34427000       2.86365734        0
Cr      -0.00000000       6.98073000       2.86365734        0
Cr       2.48000000      13.40427000       1.43182867        0
Cr       2.48000000       2.45073000       1.43182867        0
Cr       2.48000000       4.71573000       4.29548600        0
Cr       2.48000000       2.07927000       4.29548600        0
Cr      -0.00000000       0.18573000       2.86365734        0
Cr      -0.00000000      11.13927000       2.86365734        0
Cr       2.48000000       9.24573000       1.43182867        0
Cr       2.48000000       6.60927000       1.43182867        0
O        0.96224000      10.19250000       4.29548600        1
O        3.23888000      10.19250000       2.98106729        1
O        0.75888000      10.19250000       1.31441872        1
O        8.40224000       5.66250000       2.86365734        1
O        0.75888000       5.66250000       1.54923862        1
O        0.75888000       5.66250000       4.17807605        1
O        0.96224000       1.13250000       1.43182867        1
O        3.23888000       1.13250000       0.11740995        1
O        3.23888000       1.13250000       2.74624738        1
O        8.95776000       3.39750000       4.29548600        1
O        4.20112000       3.39750000       1.31441872        1
O        1.72112000       3.39750000       2.98106729        1
O        1.51776000      12.45750000       2.86365734        1
O        9.16112000      12.45750000       4.17807605        1
O        9.16112000      12.45750000       1.54923862        1
O        3.99776000       7.92750000       1.43182867        1
O        1.72112000       7.92750000       2.74624738        1
O        1.72112000       7.92750000       0.11740995        1
