(written by ASE)

120 atoms
2 atom types

0.0      9.9199999999999999  xlo xhi
0.0      9.9200000000000017  ylo yhi
0.0                   13.59  zlo zhi

Atoms # atomic

     1   1                       0                       0       4.715729999999998
     2   1                       0                       0      2.0792699999999993
     3   1      3.3066666666666671      1.6533333333333338      9.2457299999999929
     4   1      3.3066666666666671      1.6533333333333338      6.6092699999999978
     5   1      1.6533333333333335      3.3066666666666675     0.18572999999999756
     6   1      1.6533333333333335      3.3066666666666675      11.139269999999993
     7   1                       0                       0      8.8742699999999974
     8   1                       0                       0      11.510729999999995
     9   1      3.3066666666666671      1.6533333333333338      13.404269999999995
    10   1      3.3066666666666671      1.6533333333333338      2.4507299999999979
    11   1      1.6533333333333335      3.3066666666666675      4.3442699999999981
    12   1      1.6533333333333335      3.3066666666666675       6.980729999999995
    13   2      1.5177600000000002                       0      3.3974999999999986
    14   2 -2.2770562257306334e-17      1.5177600000000002      3.3974999999999986
    15   2      3.4422399999999995      3.4422400000000004      3.3974999999999986
    16   2      4.8244266666666658      1.6533333333333338      7.9274999999999967
    17   2      3.3066666666666671      3.1710933333333338      7.9274999999999967
    18   2      1.7889066666666664      0.1355733333333333      7.9274999999999967
    19   2      3.1710933333333338      3.3066666666666675      12.457499999999994
    20   2      1.6533333333333338      4.8244266666666675      12.457499999999994
    21   2      0.1355733333333333      1.7889066666666669      12.457499999999994
    22   2      3.4422399999999995                       0      10.192499999999995
    23   2  -1.347623362796019e-16      3.4422400000000004      10.192499999999995
    24   2      1.5177600000000002      1.5177600000000002      10.192499999999995
    25   2      1.7889066666666664      1.6533333333333338      1.1324999999999994
    26   2      3.3066666666666671      0.1355733333333333      1.1324999999999994
    27   2      4.8244266666666658      3.1710933333333338      1.1324999999999994
    28   2     0.13557333333333338      3.3066666666666675      5.6624999999999979
    29   2      1.6533333333333335      1.7889066666666669      5.6624999999999979
    30   2      3.1710933333333338      4.8244266666666675      5.6624999999999979
    31   1 -1.2160220984184285e-17                    4.96       4.715729999999998
    32   1 -1.2160220984184285e-17                    4.96      2.0792699999999993
    33   1      3.3066666666666671      6.6133333333333351      9.2457299999999929
    34   1      3.3066666666666671      6.6133333333333351      6.6092699999999978
    35   1      1.6533333333333338      8.2666666666666675     0.18572999999999756
    36   1      1.6533333333333338      8.2666666666666675      11.139269999999993
    37   1 -1.2160220984184285e-17                    4.96      8.8742699999999974
    38   1 -1.2160220984184285e-17                    4.96      11.510729999999995
    39   1      3.3066666666666671      6.6133333333333351      13.404269999999995
    40   1      3.3066666666666671      6.6133333333333351      2.4507299999999979
    41   1      1.6533333333333338      8.2666666666666675      4.3442699999999981
    42   1      1.6533333333333338      8.2666666666666675       6.980729999999995
    43   2      1.5177600000000002                    4.96      3.3974999999999986
    44   2  7.6091544632013447e-17                 6.47776      3.3974999999999986
    45   2      3.4422399999999995      8.4022400000000026      3.3974999999999986
    46   2      4.8244266666666658      6.6133333333333351      7.9274999999999967
    47   2      3.3066666666666671      8.1310933333333342      7.9274999999999967
    48   2      1.7889066666666664      5.0955733333333333      7.9274999999999967
    49   2      3.1710933333333338      8.2666666666666675      12.457499999999994
    50   2      1.6533333333333335      9.7844266666666684      12.457499999999994
    51   2     0.13557333333333352      6.7489066666666684      12.457499999999994
    52   2      3.4422399999999995                    4.96      10.192499999999995
    53   2  -1.125722075845663e-16      8.4022400000000026      10.192499999999995
    54   2      1.5177600000000002                 6.47776      10.192499999999995
    55   2      1.7889066666666664      6.6133333333333351      1.1324999999999994
    56   2      3.3066666666666671      5.0955733333333333      1.1324999999999994
    57   2      4.8244266666666658      8.1310933333333342      1.1324999999999994
    58   2     0.13557333333333316      8.2666666666666675      5.6624999999999979
    59   2      1.6533333333333338      6.7489066666666684      5.6624999999999979
    60   2      3.1710933333333338      9.7844266666666684      5.6624999999999979
    61   1      4.9599999999999991                       0       4.715729999999998
    62   1      4.9599999999999991                       0      2.0792699999999993
    63   1      8.2666666666666675      1.6533333333333338      9.2457299999999929
    64   1      8.2666666666666675      1.6533333333333338      6.6092699999999978
    65   1      6.6133333333333342      3.3066666666666675     0.18572999999999756
    66   1      6.6133333333333342      3.3066666666666675      11.139269999999993
    67   1      4.9599999999999991                       0      8.8742699999999974
    68   1      4.9599999999999991                       0      11.510729999999995
    69   1      8.2666666666666675      1.6533333333333338      13.404269999999995
    70   1      8.2666666666666675      1.6533333333333338      2.4507299999999979
    71   1      6.6133333333333342      3.3066666666666675      4.3442699999999981
    72   1      6.6133333333333342      3.3066666666666675       6.980729999999995
    73   2                 6.47776                       0      3.3974999999999986
    74   2      4.9599999999999991      1.5177600000000002      3.3974999999999986
    75   2       8.402239999999999      3.4422400000000004      3.3974999999999986
    76   2      9.7844266666666666      1.6533333333333338      7.9274999999999967
    77   2      8.2666666666666675      3.1710933333333338      7.9274999999999967
    78   2      6.7489066666666666      0.1355733333333333      7.9274999999999967
    79   2      8.1310933333333342      3.3066666666666675      12.457499999999994
    80   2      6.6133333333333342      4.8244266666666675      12.457499999999994
    81   2      5.0955733333333342      1.7889066666666669      12.457499999999994
    82   2       8.402239999999999                       0      10.192499999999995
    83   2      4.9599999999999991      3.4422400000000004      10.192499999999995
    84   2                 6.47776      1.5177600000000002      10.192499999999995
    85   2      6.7489066666666666      1.6533333333333338      1.1324999999999994
    86   2      8.2666666666666657      0.1355733333333333      1.1324999999999994
    87   2      9.7844266666666648      3.1710933333333338      1.1324999999999994
    88   2      5.0955733333333342      3.3066666666666675      5.6624999999999979
    89   2      6.6133333333333342      1.7889066666666669      5.6624999999999979
    90   2      8.1310933333333342      4.8244266666666675      5.6624999999999979
    91   1      4.9599999999999991                    4.96       4.715729999999998
    92   1      4.9599999999999991                    4.96      2.0792699999999993
    93   1      8.2666666666666657      6.6133333333333351      9.2457299999999929
    94   1      8.2666666666666657      6.6133333333333351      6.6092699999999978
    95   1      6.6133333333333342      8.2666666666666675     0.18572999999999756
    96   1      6.6133333333333342      8.2666666666666675      11.139269999999993
    97   1      4.9599999999999991                    4.96      8.8742699999999974
    98   1      4.9599999999999991                    4.96      11.510729999999995
    99   1      8.2666666666666657      6.6133333333333351      13.404269999999995
   100   1      8.2666666666666657      6.6133333333333351      2.4507299999999979
   101   1      6.6133333333333342      8.2666666666666675      4.3442699999999981
   102   1      6.6133333333333342      8.2666666666666675       6.980729999999995
   103   2                 6.47776                    4.96      3.3974999999999986
   104   2      4.9599999999999991                 6.47776      3.3974999999999986
   105   2       8.402239999999999      8.4022400000000026      3.3974999999999986
   106   2      9.7844266666666648      6.6133333333333351      7.9274999999999967
   107   2      8.2666666666666657      8.1310933333333342      7.9274999999999967
   108   2      6.7489066666666666      5.0955733333333333      7.9274999999999967
   109   2      8.1310933333333324      8.2666666666666675      12.457499999999994
   110   2      6.6133333333333342      9.7844266666666684      12.457499999999994
   111   2      5.0955733333333342      6.7489066666666684      12.457499999999994
   112   2       8.402239999999999                    4.96      10.192499999999995
   113   2      4.9599999999999991      8.4022400000000026      10.192499999999995
   114   2                 6.47776                 6.47776      10.192499999999995
   115   2      6.7489066666666666      6.6133333333333351      1.1324999999999994
   116   2      8.2666666666666657      5.0955733333333333      1.1324999999999994
   117   2      9.7844266666666648      8.1310933333333342      1.1324999999999994
   118   2      5.0955733333333342      8.2666666666666675      5.6624999999999979
   119   2      6.6133333333333342      6.7489066666666684      5.6624999999999979
   120   2      8.1310933333333324      9.7844266666666684      5.6624999999999979

Masses

1 51.996  # Cr
2 15.999  # O
