(written by ASE)

192 atoms
2 atom types

0.0      8.3539999999999992  xlo xhi
0.0      16.707999999999998  ylo yhi
0.0      12.530999999999999  zlo zhi

Atoms # atomic

     1   1                       0                       0                       0
     2   2      2.0884999999999998                       0                       0
     3   1                       0      2.0884999999999998      2.0884999999999998
     4   2      2.0884999999999998      2.0884999999999998      2.0884999999999998
     5   1      2.0884999999999998                       0      2.0884999999999998
     6   2                       0                       0      2.0884999999999998
     7   1      2.0884999999999998      2.0884999999999998                       0
     8   2                       0      2.0884999999999998                       0
     9   1                       0                       0      4.1769999999999996
    10   2      2.0884999999999998                       0      4.1769999999999996
    11   1                       0      2.0884999999999998      6.2654999999999994
    12   2      2.0884999999999998      2.0884999999999998      6.2654999999999994
    13   1      2.0884999999999998                       0      6.2654999999999994
    14   2                       0                       0      6.2654999999999994
    15   1      2.0884999999999998      2.0884999999999998      4.1769999999999996
    16   2                       0      2.0884999999999998      4.1769999999999996
    17   1                       0                       0      8.3539999999999992
    18   2      2.0884999999999998                       0      8.3539999999999992
    19   1                       0      2.0884999999999998      10.442499999999999
    20   2      2.0884999999999998      2.0884999999999998      10.442499999999999
    21   1      2.0884999999999998                       0      10.442499999999999
    22   2                       0                       0      10.442499999999999
    23   1      2.0884999999999998      2.0884999999999998      8.3539999999999992
    24   2                       0      2.0884999999999998      8.3539999999999992
    25   1                       0      4.1769999999999996                       0
    26   2      2.0884999999999998      4.1769999999999996                       0
    27   1                       0      6.2654999999999994      2.0884999999999998
    28   2      2.0884999999999998      6.2654999999999994      2.0884999999999998
    29   1      2.0884999999999998      4.1769999999999996      2.0884999999999998
    30   2                       0      4.1769999999999996      2.0884999999999998
    31   1      2.0884999999999998      6.2654999999999994                       0
    32   2                       0      6.2654999999999994                       0
    33   1                       0      4.1769999999999996      4.1769999999999996
    34   2      2.0884999999999998      4.1769999999999996      4.1769999999999996
    35   1                       0      6.2654999999999994      6.2654999999999994
    36   2      2.0884999999999998      6.2654999999999994      6.2654999999999994
    37   1      2.0884999999999998      4.1769999999999996      6.2654999999999994
    38   2                       0      4.1769999999999996      6.2654999999999994
    39   1      2.0884999999999998      6.2654999999999994      4.1769999999999996
    40   2                       0      6.2654999999999994      4.1769999999999996
    41   1                       0      4.1769999999999996      8.3539999999999992
    42   2      2.0884999999999998      4.1769999999999996      8.3539999999999992
    43   1                       0      6.2654999999999994      10.442499999999999
    44   2      2.0884999999999998      6.2654999999999994      10.442499999999999
    45   1      2.0884999999999998      4.1769999999999996      10.442499999999999
    46   2                       0      4.1769999999999996      10.442499999999999
    47   1      2.0884999999999998      6.2654999999999994      8.3539999999999992
    48   2                       0      6.2654999999999994      8.3539999999999992
    49   1                       0      8.3539999999999992                       0
    50   2      2.0884999999999998      8.3539999999999992                       0
    51   1                       0      10.442499999999999      2.0884999999999998
    52   2      2.0884999999999998      10.442499999999999      2.0884999999999998
    53   1      2.0884999999999998      8.3539999999999992      2.0884999999999998
    54   2                       0      8.3539999999999992      2.0884999999999998
    55   1      2.0884999999999998      10.442499999999999                       0
    56   2                       0      10.442499999999999                       0
    57   1                       0      8.3539999999999992      4.1769999999999996
    58   2      2.0884999999999998      8.3539999999999992      4.1769999999999996
    59   1                       0      10.442499999999999      6.2654999999999994
    60   2      2.0884999999999998      10.442499999999999      6.2654999999999994
    61   1      2.0884999999999998      8.3539999999999992      6.2654999999999994
    62   2                       0      8.3539999999999992      6.2654999999999994
    63   1      2.0884999999999998      10.442499999999999      4.1769999999999996
    64   2                       0      10.442499999999999      4.1769999999999996
    65   1                       0      8.3539999999999992      8.3539999999999992
    66   2      2.0884999999999998      8.3539999999999992      8.3539999999999992
    67   1                       0      10.442499999999999      10.442499999999999
    68   2      2.0884999999999998      10.442499999999999      10.442499999999999
    69   1      2.0884999999999998      8.3539999999999992      10.442499999999999
    70   2                       0      8.3539999999999992      10.442499999999999
    71   1      2.0884999999999998      10.442499999999999      8.3539999999999992
    72   2                       0      10.442499999999999      8.3539999999999992
    73   1                       0      12.530999999999999                       0
    74   2      2.0884999999999998      12.530999999999999                       0
    75   1                       0      14.619499999999999      2.0884999999999998
    76   2      2.0884999999999998      14.619499999999999      2.0884999999999998
    77   1      2.0884999999999998      12.530999999999999      2.0884999999999998
    78   2                       0      12.530999999999999      2.0884999999999998
    79   1      2.0884999999999998      14.619499999999999                       0
    80   2                       0      14.619499999999999                       0
    81   1                       0      12.530999999999999      4.1769999999999996
    82   2      2.0884999999999998      12.530999999999999      4.1769999999999996
    83   1                       0      14.619499999999999      6.2654999999999994
    84   2      2.0884999999999998      14.619499999999999      6.2654999999999994
    85   1      2.0884999999999998      12.530999999999999      6.2654999999999994
    86   2                       0      12.530999999999999      6.2654999999999994
    87   1      2.0884999999999998      14.619499999999999      4.1769999999999996
    88   2                       0      14.619499999999999      4.1769999999999996
    89   1                       0      12.530999999999999      8.3539999999999992
    90   2      2.0884999999999998      12.530999999999999      8.3539999999999992
    91   1                       0      14.619499999999999      10.442499999999999
    92   2      2.0884999999999998      14.619499999999999      10.442499999999999
    93   1      2.0884999999999998      12.530999999999999      10.442499999999999
    94   2                       0      12.530999999999999      10.442499999999999
    95   1      2.0884999999999998      14.619499999999999      8.3539999999999992
    96   2                       0      14.619499999999999      8.3539999999999992
    97   1      4.1769999999999996                       0                       0
    98   2      6.2654999999999994                       0                       0
    99   1      4.1769999999999996      2.0884999999999998      2.0884999999999998
   100   2      6.2654999999999994      2.0884999999999998      2.0884999999999998
   101   1      6.2654999999999994                       0      2.0884999999999998
   102   2      4.1769999999999996                       0      2.0884999999999998
   103   1      6.2654999999999994      2.0884999999999998                       0
   104   2      4.1769999999999996      2.0884999999999998                       0
   105   1      4.1769999999999996                       0      4.1769999999999996
   106   2      6.2654999999999994                       0      4.1769999999999996
   107   1      4.1769999999999996      2.0884999999999998      6.2654999999999994
   108   2      6.2654999999999994      2.0884999999999998      6.2654999999999994
   109   1      6.2654999999999994                       0      6.2654999999999994
   110   2      4.1769999999999996                       0      6.2654999999999994
   111   1      6.2654999999999994      2.0884999999999998      4.1769999999999996
   112   2      4.1769999999999996      2.0884999999999998      4.1769999999999996
   113   1      4.1769999999999996                       0      8.3539999999999992
   114   2      6.2654999999999994                       0      8.3539999999999992
   115   1      4.1769999999999996      2.0884999999999998      10.442499999999999
   116   2      6.2654999999999994      2.0884999999999998      10.442499999999999
   117   1      6.2654999999999994                       0      10.442499999999999
   118   2      4.1769999999999996                       0      10.442499999999999
   119   1      6.2654999999999994      2.0884999999999998      8.3539999999999992
   120   2      4.1769999999999996      2.0884999999999998      8.3539999999999992
   121   1      4.1769999999999996      4.1769999999999996                       0
   122   2      6.2654999999999994      4.1769999999999996                       0
   123   1      4.1769999999999996      6.2654999999999994      2.0884999999999998
   124   2      6.2654999999999994      6.2654999999999994      2.0884999999999998
   125   1      6.2654999999999994      4.1769999999999996      2.0884999999999998
   126   2      4.1769999999999996      4.1769999999999996      2.0884999999999998
   127   1      6.2654999999999994      6.2654999999999994                       0
   128   2      4.1769999999999996      6.2654999999999994                       0
   129   1      4.1769999999999996      4.1769999999999996      4.1769999999999996
   130   2      6.2654999999999994      4.1769999999999996      4.1769999999999996
   131   1      4.1769999999999996      6.2654999999999994      6.2654999999999994
   132   2      6.2654999999999994      6.2654999999999994      6.2654999999999994
   133   1      6.2654999999999994      4.1769999999999996      6.2654999999999994
   134   2      4.1769999999999996      4.1769999999999996      6.2654999999999994
   135   1      6.2654999999999994      6.2654999999999994      4.1769999999999996
   136   2      4.1769999999999996      6.2654999999999994      4.1769999999999996
   137   1      4.1769999999999996      4.1769999999999996      8.3539999999999992
   138   2      6.2654999999999994      4.1769999999999996      8.3539999999999992
   139   1      4.1769999999999996      6.2654999999999994      10.442499999999999
   140   2      6.2654999999999994      6.2654999999999994      10.442499999999999
   141   1      6.2654999999999994      4.1769999999999996      10.442499999999999
   142   2      4.1769999999999996      4.1769999999999996      10.442499999999999
   143   1      6.2654999999999994      6.2654999999999994      8.3539999999999992
   144   2      4.1769999999999996      6.2654999999999994      8.3539999999999992
   145   1      4.1769999999999996      8.3539999999999992                       0
   146   2      6.2654999999999994      8.3539999999999992                       0
   147   1      4.1769999999999996      10.442499999999999      2.0884999999999998
   148   2      6.2654999999999994      10.442499999999999      2.0884999999999998
   149   1      6.2654999999999994      8.3539999999999992      2.0884999999999998
   150   2      4.1769999999999996      8.3539999999999992      2.0884999999999998
   151   1      6.2654999999999994      10.442499999999999                       0
   152   2      4.1769999999999996      10.442499999999999                       0
   153   1      4.1769999999999996      8.3539999999999992      4.1769999999999996
   154   2      6.2654999999999994      8.3539999999999992      4.1769999999999996
   155   1      4.1769999999999996      10.442499999999999      6.2654999999999994
   156   2      6.2654999999999994      10.442499999999999      6.2654999999999994
   157   1      6.2654999999999994      8.3539999999999992      6.2654999999999994
   158   2      4.1769999999999996      8.3539999999999992      6.2654999999999994
   159   1      6.2654999999999994      10.442499999999999      4.1769999999999996
   160   2      4.1769999999999996      10.442499999999999      4.1769999999999996
   161   1      4.1769999999999996      8.3539999999999992      8.3539999999999992
   162   2      6.2654999999999994      8.3539999999999992      8.3539999999999992
   163   1      4.1769999999999996      10.442499999999999      10.442499999999999
   164   2      6.2654999999999994      10.442499999999999      10.442499999999999
   165   1      6.2654999999999994      8.3539999999999992      10.442499999999999
   166   2      4.1769999999999996      8.3539999999999992      10.442499999999999
   167   1      6.2654999999999994      10.442499999999999      8.3539999999999992
   168   2      4.1769999999999996      10.442499999999999      8.3539999999999992
   169   1      4.1769999999999996      12.530999999999999                       0
   170   2      6.2654999999999994      12.530999999999999                       0
   171   1      4.1769999999999996      14.619499999999999      2.0884999999999998
   172   2      6.2654999999999994      14.619499999999999      2.0884999999999998
   173   1      6.2654999999999994      12.530999999999999      2.0884999999999998
   174   2      4.1769999999999996      12.530999999999999      2.0884999999999998
   175   1      6.2654999999999994      14.619499999999999                       0
   176   2      4.1769999999999996      14.619499999999999                       0
   177   1      4.1769999999999996      12.530999999999999      4.1769999999999996
   178   2      6.2654999999999994      12.530999999999999      4.1769999999999996
   179   1      4.1769999999999996      14.619499999999999      6.2654999999999994
   180   2      6.2654999999999994      14.619499999999999      6.2654999999999994
   181   1      6.2654999999999994      12.530999999999999      6.2654999999999994
   182   2      4.1769999999999996      12.530999999999999      6.2654999999999994
   183   1      6.2654999999999994      14.619499999999999      4.1769999999999996
   184   2      4.1769999999999996      14.619499999999999      4.1769999999999996
   185   1      4.1769999999999996      12.530999999999999      8.3539999999999992
   186   2      6.2654999999999994      12.530999999999999      8.3539999999999992
   187   1      4.1769999999999996      14.619499999999999      10.442499999999999
   188   2      6.2654999999999994      14.619499999999999      10.442499999999999
   189   1      6.2654999999999994      12.530999999999999      10.442499999999999
   190   2      4.1769999999999996      12.530999999999999      10.442499999999999
   191   1      6.2654999999999994      14.619499999999999      8.3539999999999992
   192   2      4.1769999999999996      14.619499999999999      8.3539999999999992

Masses

1  58.693  # Ni
2  15.999  # O
