192
Lattice="8.354 0.0 0.0 0.0 16.708 0.0 0.0 0.0 12.530999999999999" Properties=species:S:1:pos:R:3 pbc="T T T"
Ni       0.00000000       0.00000000       0.00000000
O        2.08850000       0.00000000       0.00000000
Ni       0.00000000       2.08850000       2.08850000
O        2.08850000       2.08850000       2.08850000
Ni       2.08850000       0.00000000       2.08850000
O        0.00000000       0.00000000       2.08850000
Ni       2.08850000       2.08850000       0.00000000
O        0.00000000       2.08850000       0.00000000
Ni       0.00000000       0.00000000       4.17700000
O        2.08850000       0.00000000       4.17700000
Ni       0.00000000       2.08850000       6.26550000
O        2.08850000       2.08850000       6.26550000
Ni       2.08850000       0.00000000       6.26550000
O        0.00000000       0.00000000       6.26550000
Ni       2.08850000       2.08850000       4.17700000
O        0.00000000       2.08850000       4.17700000
Ni       0.00000000       0.00000000       8.35400000
O        2.08850000       0.00000000       8.35400000
Ni       0.00000000       2.08850000      10.44250000
O        2.08850000       2.08850000      10.44250000
Ni       2.08850000       0.00000000      10.44250000
O        0.00000000       0.00000000      10.44250000
Ni       2.08850000       2.08850000       8.35400000
O        0.00000000       2.08850000       8.35400000
Ni       0.00000000       4.17700000       0.00000000
O        2.08850000       4.17700000       0.00000000
Ni       0.00000000       6.26550000       2.08850000
O        2.08850000       6.26550000       2.08850000
Ni       2.08850000       4.17700000       2.08850000
O        0.00000000       4.17700000       2.08850000
Ni       2.08850000       6.26550000       0.00000000
O        0.00000000       6.26550000       0.00000000
Ni       0.00000000       4.17700000       4.17700000
O        2.08850000       4.17700000       4.17700000
Ni       0.00000000       6.26550000       6.26550000
O        2.08850000       6.26550000       6.26550000
Ni       2.08850000       4.17700000       6.26550000
O        0.00000000       4.17700000       6.26550000
Ni       2.08850000       6.26550000       4.17700000
O        0.00000000       6.26550000       4.17700000
Ni       0.00000000       4.17700000       8.35400000
O        2.08850000       4.17700000       8.35400000
Ni       0.00000000       6.26550000      10.44250000
O        2.08850000       6.26550000      10.44250000
Ni       2.08850000       4.17700000      10.44250000
O        0.00000000       4.17700000      10.44250000
Ni       2.08850000       6.26550000       8.35400000
O        0.00000000       6.26550000       8.35400000
Ni       0.00000000       8.35400000       0.00000000
O        2.08850000       8.35400000       0.00000000
Ni       0.00000000      10.44250000       2.08850000
O        2.08850000      10.44250000       2.08850000
Ni       2.08850000       8.35400000       2.08850000
O        0.00000000       8.35400000       2.08850000
Ni       2.08850000      10.44250000       0.00000000
O        0.00000000      10.44250000       0.00000000
Ni       0.00000000       8.35400000       4.17700000
O        2.08850000       8.35400000       4.17700000
Ni       0.00000000      10.44250000       6.26550000
O        2.08850000      10.44250000       6.26550000
Ni       2.08850000       8.35400000       6.26550000
O        0.00000000       8.35400000       6.26550000
Ni       2.08850000      10.44250000       4.17700000
O        0.00000000      10.44250000       4.17700000
Ni       0.00000000       8.35400000       8.35400000
O        2.08850000       8.35400000       8.35400000
Ni       0.00000000      10.44250000      10.44250000
O        2.08850000      10.44250000      10.44250000
Ni       2.08850000       8.35400000      10.44250000
O        0.00000000       8.35400000      10.44250000
Ni       2.08850000      10.44250000       8.35400000
O        0.00000000      10.44250000       8.35400000
Ni       0.00000000      12.53100000       0.00000000
O        2.08850000      12.53100000       0.00000000
Ni       0.00000000      14.61950000       2.08850000
O        2.08850000      14.61950000       2.08850000
Ni       2.08850000      12.53100000       2.08850000
O        0.00000000      12.53100000       2.08850000
Ni       2.08850000      14.61950000       0.00000000
O        0.00000000      14.61950000       0.00000000
Ni       0.00000000      12.53100000       4.17700000
O        2.08850000      12.53100000       4.17700000
Ni       0.00000000      14.61950000       6.26550000
O        2.08850000      14.61950000       6.26550000
Ni       2.08850000      12.53100000       6.26550000
O        0.00000000      12.53100000       6.26550000
Ni       2.08850000      14.61950000       4.17700000
O        0.00000000      14.61950000       4.17700000
Ni       0.00000000      12.53100000       8.35400000
O        2.08850000      12.53100000       8.35400000
Ni       0.00000000      14.61950000      10.44250000
O        2.08850000      14.61950000      10.44250000
Ni       2.08850000      12.53100000      10.44250000
O        0.00000000      12.53100000      10.44250000
Ni       2.08850000      14.61950000       8.35400000
O        0.00000000      14.61950000       8.35400000
Ni       4.17700000       0.00000000       0.00000000
O        6.26550000       0.00000000       0.00000000
Ni       4.17700000       2.08850000       2.08850000
O        6.26550000       2.08850000       2.08850000
Ni       6.26550000       0.00000000       2.08850000
O        4.17700000       0.00000000       2.08850000
Ni       6.26550000       2.08850000       0.00000000
O        4.17700000       2.08850000       0.00000000
Ni       4.17700000       0.00000000       4.17700000
O        6.26550000       0.00000000       4.17700000
Ni       4.17700000       2.08850000       6.26550000
O        6.26550000       2.08850000       6.26550000
Ni       6.26550000       0.00000000       6.26550000
O        4.17700000       0.00000000       6.26550000
Ni       6.26550000       2.08850000       4.17700000
O        4.17700000       2.08850000       4.17700000
Ni       4.17700000       0.00000000       8.35400000
O        6.26550000       0.00000000       8.35400000
Ni       4.17700000       2.08850000      10.44250000
O        6.26550000       2.08850000      10.44250000
Ni       6.26550000       0.00000000      10.44250000
O        4.17700000       0.00000000      10.44250000
Ni       6.26550000       2.08850000       8.35400000
O        4.17700000       2.08850000       8.35400000
Ni       4.17700000       4.17700000       0.00000000
O        6.26550000       4.17700000       0.00000000
Ni       4.17700000       6.26550000       2.08850000
O        6.26550000       6.26550000       2.08850000
Ni       6.26550000       4.17700000       2.08850000
O        4.17700000       4.17700000       2.08850000
Ni       6.26550000       6.26550000       0.00000000
O        4.17700000       6.26550000       0.00000000
Ni       4.17700000       4.17700000       4.17700000
O        6.26550000       4.17700000       4.17700000
Ni       4.17700000       6.26550000       6.26550000
O        6.26550000       6.26550000       6.26550000
Ni       6.26550000       4.17700000       6.26550000
O        4.17700000       4.17700000       6.26550000
Ni       6.26550000       6.26550000       4.17700000
O        4.17700000       6.26550000       4.17700000
Ni       4.17700000       4.17700000       8.35400000
O        6.26550000       4.17700000       8.35400000
Ni       4.17700000       6.26550000      10.44250000
O        6.26550000       6.26550000      10.44250000
Ni       6.26550000       4.17700000      10.44250000
O        4.17700000       4.17700000      10.44250000
Ni       6.26550000       6.26550000       8.35400000
O        4.17700000       6.26550000       8.35400000
Ni       4.17700000       8.35400000       0.00000000
O        6.26550000       8.35400000       0.00000000
Ni       4.17700000      10.44250000       2.08850000
O        6.26550000      10.44250000       2.08850000
Ni       6.26550000       8.35400000       2.08850000
O        4.17700000       8.35400000       2.08850000
Ni       6.26550000      10.44250000       0.00000000
O        4.17700000      10.44250000       0.00000000
Ni       4.17700000       8.35400000       4.17700000
O        6.26550000       8.35400000       4.17700000
Ni       4.17700000      10.44250000       6.26550000
O        6.26550000      10.44250000       6.26550000
Ni       6.26550000       8.35400000       6.26550000
O        4.17700000       8.35400000       6.26550000
Ni       6.26550000      10.44250000       4.17700000
O        4.17700000      10.44250000       4.17700000
Ni       4.17700000       8.35400000       8.35400000
O        6.26550000       8.35400000       8.35400000
Ni       4.17700000      10.44250000      10.44250000
O        6.26550000      10.44250000      10.44250000
Ni       6.26550000       8.35400000      10.44250000
O        4.17700000       8.35400000      10.44250000
Ni       6.26550000      10.44250000       8.35400000
O        4.17700000      10.44250000       8.35400000
Ni       4.17700000      12.53100000       0.00000000
O        6.26550000      12.53100000       0.00000000
Ni       4.17700000      14.61950000       2.08850000
O        6.26550000      14.61950000       2.08850000
Ni       6.26550000      12.53100000       2.08850000
O        4.17700000      12.53100000       2.08850000
Ni       6.26550000      14.61950000       0.00000000
O        4.17700000      14.61950000       0.00000000
Ni       4.17700000      12.53100000       4.17700000
O        6.26550000      12.53100000       4.17700000
Ni       4.17700000      14.61950000       6.26550000
O        6.26550000      14.61950000       6.26550000
Ni       6.26550000      12.53100000       6.26550000
O        4.17700000      12.53100000       6.26550000
Ni       6.26550000      14.61950000       4.17700000
O        4.17700000      14.61950000       4.17700000
Ni       4.17700000      12.53100000       8.35400000
O        6.26550000      12.53100000       8.35400000
Ni       4.17700000      14.61950000      10.44250000
O        6.26550000      14.61950000      10.44250000
Ni       6.26550000      12.53100000      10.44250000
O        4.17700000      12.53100000      10.44250000
Ni       6.26550000      14.61950000       8.35400000
O        4.17700000      14.61950000       8.35400000
