(written by ASE)

432 atoms
3 atom types

0.0      10.571999999999999  xlo xhi
0.0      17.620000000000001  ylo yhi
0.0      27.661039999999993  zlo zhi

Atoms # atomic

     1   1                       0                       0      8.6885399999999979
     2   1                       0                       0      11.324999999999996
     3   1      7.9289999999999985      16.151666666666667      4.1585400000000003
     4   1      7.9289999999999985      16.151666666666667      6.7949999999999964
     5   1                       0      14.683333333333328      13.218539999999994
     6   1                       0      14.683333333333328      2.2650000000000006
     7   1                       0                       0      4.5299999999999958
     8   1                       0                       0      1.8935399999999982
     9   1      7.9289999999999985      16.151666666666667                       0
    10   1      7.9289999999999985      16.151666666666667      10.953539999999998
    11   1                       0      14.683333333333328      9.0599999999999969
    12   1                       0      14.683333333333328      6.4235399999999965
    13   3       8.954483999999999                       0      10.006769999999996
    14   3     0.80875799999999964      16.272069999999999      10.006769999999996
    15   3      8.7377580000000012      14.562929999999996      10.006769999999996
    16   3      6.3114839999999992      16.151666666666667      5.4767699999999966
    17   3      8.7377580000000012      14.803736666666669      5.4767699999999966
    18   3      8.7377580000000012      17.499596666666665      5.4767699999999966
    19   3       8.954483999999999      14.683333333333328     0.94676999999999678
    20   3     0.80875800000000009      13.335403333333332     0.94676999999999678
    21   3     0.80875800000000009      16.031263333333335     0.94676999999999678
    22   3      6.9035159999999998                       0      3.2117699999999978
    23   3      1.8342419999999993      14.562929999999996      3.2117699999999978
    24   3                9.763242      16.272069999999999      3.2117699999999978
    25   3      9.5465160000000022      16.151666666666667      12.271769999999998
    26   3      7.1202420000000002      17.499596666666665      12.271769999999998
    27   3      7.1202420000000002      14.803736666666669      12.271769999999998
    28   3      1.6175160000000002      14.683333333333328      7.7417699999999963
    29   3                9.763242      16.031263333333335      7.7417699999999963
    30   3                9.763242      13.335403333333332      7.7417699999999963
    31   1      2.6429999999999993                  13.215      8.6885399999999979
    32   1      2.6429999999999993                  13.215      11.324999999999996
    33   1 -1.7301911360837385e-15      11.746666666666668      4.1585400000000003
    34   1 -1.7301911360837385e-15      11.746666666666668      6.7949999999999964
    35   1      2.6429999999999993      10.278333333333329      13.218539999999994
    36   1      2.6429999999999993      10.278333333333329      2.2650000000000006
    37   1      2.6429999999999993                  13.215      4.5299999999999958
    38   1      2.6429999999999993                  13.215      1.8935399999999982
    39   1 -1.7301911360837385e-15      11.746666666666668                       0
    40   1 -1.7301911360837385e-15      11.746666666666668      10.953539999999998
    41   1      2.6429999999999993      10.278333333333329      9.0599999999999969
    42   1      2.6429999999999993      10.278333333333329      6.4235399999999965
    43   3      1.0254839999999998                  13.215      10.006769999999996
    44   3      3.4517579999999994      11.867070000000002      10.006769999999996
    45   3     0.80875799999999887                10.15793      10.006769999999996
    46   3       8.954483999999999      11.746666666666668      5.4767699999999966
    47   3     0.80875799999999887      10.398736666666668      5.4767699999999966
    48   3     0.80875800000000009      13.094596666666668      5.4767699999999966
    49   3      1.0254840000000005      10.278333333333329     0.94676999999999678
    50   3      3.4517579999999994      8.9304033333333326     0.94676999999999678
    51   3      3.4517579999999999      11.626263333333325     0.94676999999999678
    52   3      9.5465160000000022                  13.215      3.2117699999999978
    53   3      4.4772419999999995                10.15793      3.2117699999999978
    54   3      1.8342419999999997      11.867070000000002      3.2117699999999978
    55   3      1.6175160000000002      11.746666666666668      12.271769999999998
    56   3                9.763242      13.094596666666668      12.271769999999998
    57   3                9.763242      10.398736666666668      12.271769999999998
    58   3      4.2605160000000009      10.278333333333329      7.7417699999999963
    59   3      1.8342419999999997      11.626263333333325      7.7417699999999963
    60   3      1.8342419999999993      8.9304033333333326      7.7417699999999963
    61   1      5.2859999999999987      8.8100000000000023      8.6885399999999979
    62   1      5.2859999999999987      8.8100000000000023      11.324999999999996
    63   1      2.6429999999999998      7.3416666666666703      4.1585400000000003
    64   1      2.6429999999999998      7.3416666666666703      6.7949999999999964
    65   1      5.2859999999999987       5.873333333333334      13.218539999999994
    66   1      5.2859999999999987       5.873333333333334      2.2650000000000006
    67   1      5.2859999999999987      8.8100000000000023      4.5299999999999958
    68   1      5.2859999999999987      8.8100000000000023      1.8935399999999982
    69   1      2.6429999999999998      7.3416666666666703                       0
    70   1      2.6429999999999998      7.3416666666666703      10.953539999999998
    71   1      5.2859999999999987       5.873333333333334      9.0599999999999969
    72   1      5.2859999999999987       5.873333333333334      6.4235399999999965
    73   3      3.6684839999999994      8.8100000000000023      10.006769999999996
    74   3      6.0947580000000015      7.4620699999999998      10.006769999999996
    75   3      3.4517580000000017      5.7529299999999974      10.006769999999996
    76   3      1.0254840000000005      7.3416666666666703      5.4767699999999966
    77   3      3.4517579999999994      5.9937366666666687      5.4767699999999966
    78   3      3.4517579999999999      8.6895966666666666      5.4767699999999966
    79   3       3.668483999999999       5.873333333333334     0.94676999999999678
    80   3      6.0947580000000015      4.5254033333333314     0.94676999999999678
    81   3      6.0947580000000015      7.2212633333333329     0.94676999999999678
    82   3      1.6175160000000002      8.8100000000000023      3.2117699999999978
    83   3      7.1202420000000002      5.7529299999999974      3.2117699999999978
    84   3      4.4772419999999995      7.4620699999999998      3.2117699999999978
    85   3      4.2605160000000009      7.3416666666666703      12.271769999999998
    86   3      1.8342419999999997      8.6895966666666666      12.271769999999998
    87   3      1.8342420000000004      5.9937366666666687      12.271769999999998
    88   3      6.9035159999999989       5.873333333333334      7.7417699999999963
    89   3      4.4772419999999986      7.2212633333333329      7.7417699999999963
    90   3      4.4772419999999995      4.5254033333333314      7.7417699999999963
    91   1      7.9289999999999994      4.4049999999999994      8.6885399999999979
    92   1      7.9289999999999994      4.4049999999999994      11.324999999999996
    93   1      5.2859999999999987      2.9366666666666692      4.1585400000000003
    94   1      5.2859999999999987      2.9366666666666692      6.7949999999999964
    95   1      7.9289999999999985      1.4683333333333339      13.218539999999994
    96   1      7.9289999999999985      1.4683333333333339      2.2650000000000006
    97   1      7.9289999999999994      4.4049999999999994      4.5299999999999958
    98   1      7.9289999999999994      4.4049999999999994      1.8935399999999982
    99   1      5.2859999999999987      2.9366666666666692                       0
   100   1      5.2859999999999987      2.9366666666666692      10.953539999999998
   101   1      7.9289999999999985      1.4683333333333339      9.0599999999999969
   102   1      7.9289999999999985      1.4683333333333339      6.4235399999999965
   103   3      6.3114839999999983      4.4049999999999994      10.006769999999996
   104   3      8.7377580000000012       3.057070000000004      10.006769999999996
   105   3      6.0947580000000015      1.3479300000000003      10.006769999999996
   106   3      3.6684840000000007      2.9366666666666692      5.4767699999999966
   107   3      6.0947579999999979      1.5887366666666698      5.4767699999999966
   108   3      6.0947579999999979      4.2845966666666682      5.4767699999999966
   109   3      6.3114839999999983      1.4683333333333339     0.94676999999999678
   110   3      8.7377580000000012     0.12040333333333376     0.94676999999999678
   111   3      8.7377580000000012      2.8162633333333362     0.94676999999999678
   112   3      4.2605159999999991      4.4049999999999994      3.2117699999999978
   113   3                9.763242      1.3479300000000003      3.2117699999999978
   114   3      7.1202420000000002       3.057070000000004      3.2117699999999978
   115   3      6.9035159999999998      2.9366666666666692      12.271769999999998
   116   3      4.4772419999999995      4.2845966666666682      12.271769999999998
   117   3      4.4772419999999995      1.5887366666666698      12.271769999999998
   118   3      9.5465159999999987      1.4683333333333339      7.7417699999999963
   119   3      7.1202420000000002      2.8162633333333362      7.7417699999999963
   120   3      7.1202420000000002     0.12040333333333376      7.7417699999999963
   121   1      5.2859999999999987                       0      8.6885399999999979
   122   1      5.2859999999999987                       0      11.324999999999996
   123   1      2.6429999999999989      16.151666666666667      4.1585400000000003
   124   1      2.6429999999999989      16.151666666666667      6.7949999999999964
   125   1      5.2859999999999978      14.683333333333328      13.218539999999994
   126   1      5.2859999999999978      14.683333333333328      2.2650000000000006
   127   1      5.2859999999999987                       0      4.5299999999999958
   128   1      5.2859999999999987                       0      1.8935399999999982
   129   1      2.6429999999999989      16.151666666666667                       0
   130   1      2.6429999999999989      16.151666666666667      10.953539999999998
   131   1      5.2859999999999978      14.683333333333328      9.0599999999999969
   132   1      5.2859999999999978      14.683333333333328      6.4235399999999965
   133   3      3.6684839999999994                       0      10.006769999999996
   134   3      6.0947580000000015      16.272069999999999      10.006769999999996
   135   3      3.4517579999999999      14.562929999999996      10.006769999999996
   136   3      1.0254839999999998      16.151666666666667      5.4767699999999966
   137   3      3.4517579999999977      14.803736666666669      5.4767699999999966
   138   3      3.4517579999999999      17.499596666666665      5.4767699999999966
   139   3      3.6684839999999985      14.683333333333328     0.94676999999999678
   140   3       6.094757999999997      13.335403333333332     0.94676999999999678
   141   3       6.094757999999997      16.031263333333335     0.94676999999999678
   142   3      1.6175160000000002                       0      3.2117699999999978
   143   3      7.1202420000000002      14.562929999999996      3.2117699999999978
   144   3      4.4772419999999995      16.272069999999999      3.2117699999999978
   145   3      4.2605160000000009      16.151666666666667      12.271769999999998
   146   3      1.8342420000000008      17.499596666666665      12.271769999999998
   147   3      1.8342420000000019      14.803736666666669      12.271769999999998
   148   3      6.9035159999999989      14.683333333333328      7.7417699999999963
   149   3      4.4772419999999986      16.031263333333335      7.7417699999999963
   150   3      4.4772419999999995      13.335403333333332      7.7417699999999963
   151   1      7.9289999999999994                  13.215      8.6885399999999979
   152   1      7.9289999999999994                  13.215      11.324999999999996
   153   1      5.2859999999999987      11.746666666666668      4.1585400000000003
   154   1      5.2859999999999987      11.746666666666668      6.7949999999999964
   155   1      7.9289999999999976      10.278333333333329      13.218539999999994
   156   1      7.9289999999999976      10.278333333333329      2.2650000000000006
   157   1      7.9289999999999994                  13.215      4.5299999999999958
   158   1      7.9289999999999994                  13.215      1.8935399999999982
   159   1      5.2859999999999987      11.746666666666668                       0
   160   1      5.2859999999999987      11.746666666666668      10.953539999999998
   161   1      7.9289999999999976      10.278333333333329      9.0599999999999969
   162   1      7.9289999999999976      10.278333333333329      6.4235399999999965
   163   3      6.3114839999999992                  13.215      10.006769999999996
   164   3      8.7377580000000012      11.867070000000002      10.006769999999996
   165   3      6.0947580000000015                10.15793      10.006769999999996
   166   3      3.6684840000000016      11.746666666666668      5.4767699999999966
   167   3      6.0947580000000015      10.398736666666668      5.4767699999999966
   168   3      6.0947580000000015      13.094596666666668      5.4767699999999966
   169   3      6.3114839999999992      10.278333333333329     0.94676999999999678
   170   3      8.7377579999999959      8.9304033333333326     0.94676999999999678
   171   3      8.7377579999999959      11.626263333333325     0.94676999999999678
   172   3      4.2605160000000009                  13.215      3.2117699999999978
   173   3                9.763242                10.15793      3.2117699999999978
   174   3      7.1202420000000002      11.867070000000002      3.2117699999999978
   175   3      6.9035159999999998      11.746666666666668      12.271769999999998
   176   3      4.4772419999999995      13.094596666666668      12.271769999999998
   177   3      4.4772420000000022      10.398736666666668      12.271769999999998
   178   3      9.5465160000000022      10.278333333333329      7.7417699999999963
   179   3      7.1202419999999966      11.626263333333325      7.7417699999999963
   180   3      7.1202420000000002      8.9304033333333326      7.7417699999999963
   181   1                       0      8.8100000000000023      8.6885399999999979
   182   1                       0      8.8100000000000023      11.324999999999996
   183   1      7.9289999999999994      7.3416666666666703      4.1585400000000003
   184   1      7.9289999999999994      7.3416666666666703      6.7949999999999964
   185   1 -1.7301911360837385e-15       5.873333333333334      13.218539999999994
   186   1 -1.7301911360837385e-15       5.873333333333334      2.2650000000000006
   187   1                       0      8.8100000000000023      4.5299999999999958
   188   1                       0      8.8100000000000023      1.8935399999999982
   189   1      7.9289999999999994      7.3416666666666703                       0
   190   1      7.9289999999999994      7.3416666666666703      10.953539999999998
   191   1 -1.7301911360837385e-15       5.873333333333334      9.0599999999999969
   192   1 -1.7301911360837385e-15       5.873333333333334      6.4235399999999965
   193   3       8.954483999999999      8.8100000000000023      10.006769999999996
   194   3     0.80875800000000009      7.4620699999999998      10.006769999999996
   195   3      8.7377580000000012      5.7529299999999974      10.006769999999996
   196   3      6.3114840000000001      7.3416666666666703      5.4767699999999966
   197   3      8.7377580000000012      5.9937366666666687      5.4767699999999966
   198   3      8.7377580000000012      8.6895966666666666      5.4767699999999966
   199   3       8.954483999999999       5.873333333333334     0.94676999999999678
   200   3     0.80875799999999776      4.5254033333333314     0.94676999999999678
   201   3     0.80875799999999887      7.2212633333333329     0.94676999999999678
   202   3      6.9035159999999989      8.8100000000000023      3.2117699999999978
   203   3      1.8342419999999997      5.7529299999999974      3.2117699999999978
   204   3                9.763242      7.4620699999999998      3.2117699999999978
   205   3      9.5465159999999987      7.3416666666666703      12.271769999999998
   206   3      7.1202420000000002      8.6895966666666666      12.271769999999998
   207   3      7.1202420000000002      5.9937366666666687      12.271769999999998
   208   3      1.6175159999999977       5.873333333333334      7.7417699999999963
   209   3      9.7632419999999982      7.2212633333333329      7.7417699999999963
   210   3                9.763242      4.5254033333333314      7.7417699999999963
   211   1      2.6429999999999989      4.4049999999999994      8.6885399999999979
   212   1      2.6429999999999989      4.4049999999999994      11.324999999999996
   213   1 -1.7301911360837385e-15      2.9366666666666692      4.1585400000000003
   214   1 -1.7301911360837385e-15      2.9366666666666692      6.7949999999999964
   215   1       2.642999999999998      1.4683333333333339      13.218539999999994
   216   1       2.642999999999998      1.4683333333333339      2.2650000000000006
   217   1      2.6429999999999989      4.4049999999999994      4.5299999999999958
   218   1      2.6429999999999989      4.4049999999999994      1.8935399999999982
   219   1 -1.7301911360837385e-15      2.9366666666666692                       0
   220   1 -1.7301911360837385e-15      2.9366666666666692      10.953539999999998
   221   1       2.642999999999998      1.4683333333333339      9.0599999999999969
   222   1       2.642999999999998      1.4683333333333339      6.4235399999999965
   223   3      1.0254839999999998      4.4049999999999994      10.006769999999996
   224   3      3.4517579999999999       3.057070000000004      10.006769999999996
   225   3     0.80875800000000009      1.3479300000000003      10.006769999999996
   226   3       8.954483999999999      2.9366666666666692      5.4767699999999966
   227   3     0.80875800000000009      1.5887366666666698      5.4767699999999966
   228   3     0.80875799999999887      4.2845966666666682      5.4767699999999966
   229   3      1.0254839999999998      1.4683333333333339     0.94676999999999678
   230   3      3.4517579999999977     0.12040333333333376     0.94676999999999678
   231   3      3.4517579999999977      2.8162633333333362     0.94676999999999678
   232   3      9.5465160000000022      4.4049999999999994      3.2117699999999978
   233   3      4.4772419999999995      1.3479300000000003      3.2117699999999978
   234   3      1.8342419999999993       3.057070000000004      3.2117699999999978
   235   3      1.6175159999999991      2.9366666666666692      12.271769999999998
   236   3                9.763242      4.2845966666666682      12.271769999999998
   237   3                9.763242      1.5887366666666698      12.271769999999998
   238   3      4.2605159999999991      1.4683333333333339      7.7417699999999963
   239   3      1.8342419999999979      2.8162633333333362      7.7417699999999963
   240   3      1.8342419999999997     0.12040333333333376      7.7417699999999963
   241   2                       0                       0      15.218539999999994
   242   3      2.6429999999999998                       0      15.218539999999994
   243   2                       0      2.2025000000000001      17.307039999999994
   244   3      2.6429999999999998      2.2025000000000001      17.307039999999994
   245   2      2.6429999999999998                       0      17.307039999999994
   246   3                       0                       0      17.307039999999994
   247   2      2.6429999999999998      2.2025000000000001      15.218539999999994
   248   3                       0      2.2025000000000001      15.218539999999994
   249   2                       0                       0      19.395539999999993
   250   3      2.6429999999999998                       0      19.395539999999993
   251   2                       0      2.2025000000000001      21.484039999999993
   252   3      2.6429999999999998      2.2025000000000001      21.484039999999993
   253   2      2.6429999999999998                       0      21.484039999999993
   254   3                       0                       0      21.484039999999993
   255   2      2.6429999999999998      2.2025000000000001      19.395539999999993
   256   3                       0      2.2025000000000001      19.395539999999993
   257   2                       0                       0      23.572539999999993
   258   3      2.6429999999999998                       0      23.572539999999993
   259   2                       0      2.2025000000000001      25.661039999999993
   260   3      2.6429999999999998      2.2025000000000001      25.661039999999993
   261   2      2.6429999999999998                       0      25.661039999999993
   262   3                       0                       0      25.661039999999993
   263   2      2.6429999999999998      2.2025000000000001      23.572539999999993
   264   3                       0      2.2025000000000001      23.572539999999993
   265   2                       0      4.4050000000000002      15.218539999999994
   266   3      2.6429999999999998      4.4050000000000002      15.218539999999994
   267   2                       0      6.6074999999999999      17.307039999999994
   268   3      2.6429999999999998      6.6074999999999999      17.307039999999994
   269   2      2.6429999999999998      4.4050000000000002      17.307039999999994
   270   3                       0      4.4050000000000002      17.307039999999994
   271   2      2.6429999999999998      6.6074999999999999      15.218539999999994
   272   3                       0      6.6074999999999999      15.218539999999994
   273   2                       0      4.4050000000000002      19.395539999999993
   274   3      2.6429999999999998      4.4050000000000002      19.395539999999993
   275   2                       0      6.6074999999999999      21.484039999999993
   276   3      2.6429999999999998      6.6074999999999999      21.484039999999993
   277   2      2.6429999999999998      4.4050000000000002      21.484039999999993
   278   3                       0      4.4050000000000002      21.484039999999993
   279   2      2.6429999999999998      6.6074999999999999      19.395539999999993
   280   3                       0      6.6074999999999999      19.395539999999993
   281   2                       0      4.4050000000000002      23.572539999999993
   282   3      2.6429999999999998      4.4050000000000002      23.572539999999993
   283   2                       0      6.6074999999999999      25.661039999999993
   284   3      2.6429999999999998      6.6074999999999999      25.661039999999993
   285   2      2.6429999999999998      4.4050000000000002      25.661039999999993
   286   3                       0      4.4050000000000002      25.661039999999993
   287   2      2.6429999999999998      6.6074999999999999      23.572539999999993
   288   3                       0      6.6074999999999999      23.572539999999993
   289   2                       0      8.8100000000000005      15.218539999999994
   290   3      2.6429999999999998      8.8100000000000005      15.218539999999994
   291   2                       0      11.012499999999999      17.307039999999994
   292   3      2.6429999999999998      11.012499999999999      17.307039999999994
   293   2      2.6429999999999998      8.8100000000000005      17.307039999999994
   294   3                       0      8.8100000000000005      17.307039999999994
   295   2      2.6429999999999998      11.012499999999999      15.218539999999994
   296   3                       0      11.012499999999999      15.218539999999994
   297   2                       0      8.8100000000000005      19.395539999999993
   298   3      2.6429999999999998      8.8100000000000005      19.395539999999993
   299   2                       0      11.012499999999999      21.484039999999993
   300   3      2.6429999999999998      11.012499999999999      21.484039999999993
   301   2      2.6429999999999998      8.8100000000000005      21.484039999999993
   302   3                       0      8.8100000000000005      21.484039999999993
   303   2      2.6429999999999998      11.012499999999999      19.395539999999993
   304   3                       0      11.012499999999999      19.395539999999993
   305   2                       0      8.8100000000000005      23.572539999999993
   306   3      2.6429999999999998      8.8100000000000005      23.572539999999993
   307   2                       0      11.012499999999999      25.661039999999993
   308   3      2.6429999999999998      11.012499999999999      25.661039999999993
   309   2      2.6429999999999998      8.8100000000000005      25.661039999999993
   310   3                       0      8.8100000000000005      25.661039999999993
   311   2      2.6429999999999998      11.012499999999999      23.572539999999993
   312   3                       0      11.012499999999999      23.572539999999993
   313   2                       0                  13.215      15.218539999999994
   314   3      2.6429999999999998                  13.215      15.218539999999994
   315   2                       0                 15.4175      17.307039999999994
   316   3      2.6429999999999998                 15.4175      17.307039999999994
   317   2      2.6429999999999998                  13.215      17.307039999999994
   318   3                       0                  13.215      17.307039999999994
   319   2      2.6429999999999998                 15.4175      15.218539999999994
   320   3                       0                 15.4175      15.218539999999994
   321   2                       0                  13.215      19.395539999999993
   322   3      2.6429999999999998                  13.215      19.395539999999993
   323   2                       0                 15.4175      21.484039999999993
   324   3      2.6429999999999998                 15.4175      21.484039999999993
   325   2      2.6429999999999998                  13.215      21.484039999999993
   326   3                       0                  13.215      21.484039999999993
   327   2      2.6429999999999998                 15.4175      19.395539999999993
   328   3                       0                 15.4175      19.395539999999993
   329   2                       0                  13.215      23.572539999999993
   330   3      2.6429999999999998                  13.215      23.572539999999993
   331   2                       0                 15.4175      25.661039999999993
   332   3      2.6429999999999998                 15.4175      25.661039999999993
   333   2      2.6429999999999998                  13.215      25.661039999999993
   334   3                       0                  13.215      25.661039999999993
   335   2      2.6429999999999998                 15.4175      23.572539999999993
   336   3                       0                 15.4175      23.572539999999993
   337   2      5.2859999999999996                       0      15.218539999999994
   338   3      7.9289999999999994                       0      15.218539999999994
   339   2      5.2859999999999996      2.2025000000000001      17.307039999999994
   340   3      7.9289999999999994      2.2025000000000001      17.307039999999994
   341   2      7.9289999999999994                       0      17.307039999999994
   342   3      5.2859999999999996                       0      17.307039999999994
   343   2      7.9289999999999994      2.2025000000000001      15.218539999999994
   344   3      5.2859999999999996      2.2025000000000001      15.218539999999994
   345   2      5.2859999999999996                       0      19.395539999999993
   346   3      7.9289999999999994                       0      19.395539999999993
   347   2      5.2859999999999996      2.2025000000000001      21.484039999999993
   348   3      7.9289999999999994      2.2025000000000001      21.484039999999993
   349   2      7.9289999999999994                       0      21.484039999999993
   350   3      5.2859999999999996                       0      21.484039999999993
   351   2      7.9289999999999994      2.2025000000000001      19.395539999999993
   352   3      5.2859999999999996      2.2025000000000001      19.395539999999993
   353   2      5.2859999999999996                       0      23.572539999999993
   354   3      7.9289999999999994                       0      23.572539999999993
   355   2      5.2859999999999996      2.2025000000000001      25.661039999999993
   356   3      7.9289999999999994      2.2025000000000001      25.661039999999993
   357   2      7.9289999999999994                       0      25.661039999999993
   358   3      5.2859999999999996                       0      25.661039999999993
   359   2      7.9289999999999994      2.2025000000000001      23.572539999999993
   360   3      5.2859999999999996      2.2025000000000001      23.572539999999993
   361   2      5.2859999999999996      4.4050000000000002      15.218539999999994
   362   3      7.9289999999999994      4.4050000000000002      15.218539999999994
   363   2      5.2859999999999996      6.6074999999999999      17.307039999999994
   364   3      7.9289999999999994      6.6074999999999999      17.307039999999994
   365   2      7.9289999999999994      4.4050000000000002      17.307039999999994
   366   3      5.2859999999999996      4.4050000000000002      17.307039999999994
   367   2      7.9289999999999994      6.6074999999999999      15.218539999999994
   368   3      5.2859999999999996      6.6074999999999999      15.218539999999994
   369   2      5.2859999999999996      4.4050000000000002      19.395539999999993
   370   3      7.9289999999999994      4.4050000000000002      19.395539999999993
   371   2      5.2859999999999996      6.6074999999999999      21.484039999999993
   372   3      7.9289999999999994      6.6074999999999999      21.484039999999993
   373   2      7.9289999999999994      4.4050000000000002      21.484039999999993
   374   3      5.2859999999999996      4.4050000000000002      21.484039999999993
   375   2      7.9289999999999994      6.6074999999999999      19.395539999999993
   376   3      5.2859999999999996      6.6074999999999999      19.395539999999993
   377   2      5.2859999999999996      4.4050000000000002      23.572539999999993
   378   3      7.9289999999999994      4.4050000000000002      23.572539999999993
   379   2      5.2859999999999996      6.6074999999999999      25.661039999999993
   380   3      7.9289999999999994      6.6074999999999999      25.661039999999993
   381   2      7.9289999999999994      4.4050000000000002      25.661039999999993
   382   3      5.2859999999999996      4.4050000000000002      25.661039999999993
   383   2      7.9289999999999994      6.6074999999999999      23.572539999999993
   384   3      5.2859999999999996      6.6074999999999999      23.572539999999993
   385   2      5.2859999999999996      8.8100000000000005      15.218539999999994
   386   3      7.9289999999999994      8.8100000000000005      15.218539999999994
   387   2      5.2859999999999996      11.012499999999999      17.307039999999994
   388   3      7.9289999999999994      11.012499999999999      17.307039999999994
   389   2      7.9289999999999994      8.8100000000000005      17.307039999999994
   390   3      5.2859999999999996      8.8100000000000005      17.307039999999994
   391   2      7.9289999999999994      11.012499999999999      15.218539999999994
   392   3      5.2859999999999996      11.012499999999999      15.218539999999994
   393   2      5.2859999999999996      8.8100000000000005      19.395539999999993
   394   3      7.9289999999999994      8.8100000000000005      19.395539999999993
   395   2      5.2859999999999996      11.012499999999999      21.484039999999993
   396   3      7.9289999999999994      11.012499999999999      21.484039999999993
   397   2      7.9289999999999994      8.8100000000000005      21.484039999999993
   398   3      5.2859999999999996      8.8100000000000005      21.484039999999993
   399   2      7.9289999999999994      11.012499999999999      19.395539999999993
   400   3      5.2859999999999996      11.012499999999999      19.395539999999993
   401   2      5.2859999999999996      8.8100000000000005      23.572539999999993
   402   3      7.9289999999999994      8.8100000000000005      23.572539999999993
   403   2      5.2859999999999996      11.012499999999999      25.661039999999993
   404   3      7.9289999999999994      11.012499999999999      25.661039999999993
   405   2      7.9289999999999994      8.8100000000000005      25.661039999999993
   406   3      5.2859999999999996      8.8100000000000005      25.661039999999993
   407   2      7.9289999999999994      11.012499999999999      23.572539999999993
   408   3      5.2859999999999996      11.012499999999999      23.572539999999993
   409   2      5.2859999999999996                  13.215      15.218539999999994
   410   3      7.9289999999999994                  13.215      15.218539999999994
   411   2      5.2859999999999996                 15.4175      17.307039999999994
   412   3      7.9289999999999994                 15.4175      17.307039999999994
   413   2      7.9289999999999994                  13.215      17.307039999999994
   414   3      5.2859999999999996                  13.215      17.307039999999994
   415   2      7.9289999999999994                 15.4175      15.218539999999994
   416   3      5.2859999999999996                 15.4175      15.218539999999994
   417   2      5.2859999999999996                  13.215      19.395539999999993
   418   3      7.9289999999999994                  13.215      19.395539999999993
   419   2      5.2859999999999996                 15.4175      21.484039999999993
   420   3      7.9289999999999994                 15.4175      21.484039999999993
   421   2      7.9289999999999994                  13.215      21.484039999999993
   422   3      5.2859999999999996                  13.215      21.484039999999993
   423   2      7.9289999999999994                 15.4175      19.395539999999993
   424   3      5.2859999999999996                 15.4175      19.395539999999993
   425   2      5.2859999999999996                  13.215      23.572539999999993
   426   3      7.9289999999999994                  13.215      23.572539999999993
   427   2      5.2859999999999996                 15.4175      25.661039999999993
   428   3      7.9289999999999994                 15.4175      25.661039999999993
   429   2      7.9289999999999994                  13.215      25.661039999999993
   430   3      5.2859999999999996                  13.215      25.661039999999993
   431   2      7.9289999999999994                 15.4175      23.572539999999993
   432   3      5.2859999999999996                 15.4175      23.572539999999993

Masses

1  51.996  # Cr
2  58.693  # Ni
3  15.999  # O
