432
Lattice="10.572 0.0 0.0 0.0 17.62 0.0 0.0 0.0 27.661039999999993" Properties=species:S:1:pos:R:3 pbc="T T T"
Cr       0.00000000       0.00000000       8.68854000
Cr       0.00000000       0.00000000      11.32500000
Cr       7.92900000      16.15166667       4.15854000
Cr       7.92900000      16.15166667       6.79500000
Cr       0.00000000      14.68333333      13.21854000
Cr       0.00000000      14.68333333       2.26500000
Cr       0.00000000       0.00000000       4.53000000
Cr       0.00000000       0.00000000       1.89354000
Cr       7.92900000      16.15166667       0.00000000
Cr       7.92900000      16.15166667      10.95354000
Cr       0.00000000      14.68333333       9.06000000
Cr       0.00000000      14.68333333       6.42354000
O        8.95448400       0.00000000      10.00677000
O        0.80875800      16.27207000      10.00677000
O        8.73775800      14.56293000      10.00677000
O        6.31148400      16.15166667       5.47677000
O        8.73775800      14.80373667       5.47677000
O        8.73775800      17.49959667       5.47677000
O        8.95448400      14.68333333       0.94677000
O        0.80875800      13.33540333       0.94677000
O        0.80875800      16.03126333       0.94677000
O        6.90351600       0.00000000       3.21177000
O        1.83424200      14.56293000       3.21177000
O        9.76324200      16.27207000       3.21177000
O        9.54651600      16.15166667      12.27177000
O        7.12024200      17.49959667      12.27177000
O        7.12024200      14.80373667      12.27177000
O        1.61751600      14.68333333       7.74177000
O        9.76324200      16.03126333       7.74177000
O        9.76324200      13.33540333       7.74177000
Cr       2.64300000      13.21500000       8.68854000
Cr       2.64300000      13.21500000      11.32500000
Cr      -0.00000000      11.74666667       4.15854000
Cr      -0.00000000      11.74666667       6.79500000
Cr       2.64300000      10.27833333      13.21854000
Cr       2.64300000      10.27833333       2.26500000
Cr       2.64300000      13.21500000       4.53000000
Cr       2.64300000      13.21500000       1.89354000
Cr      -0.00000000      11.74666667       0.00000000
Cr      -0.00000000      11.74666667      10.95354000
Cr       2.64300000      10.27833333       9.06000000
Cr       2.64300000      10.27833333       6.42354000
O        1.02548400      13.21500000      10.00677000
O        3.45175800      11.86707000      10.00677000
O        0.80875800      10.15793000      10.00677000
O        8.95448400      11.74666667       5.47677000
O        0.80875800      10.39873667       5.47677000
O        0.80875800      13.09459667       5.47677000
O        1.02548400      10.27833333       0.94677000
O        3.45175800       8.93040333       0.94677000
O        3.45175800      11.62626333       0.94677000
O        9.54651600      13.21500000       3.21177000
O        4.47724200      10.15793000       3.21177000
O        1.83424200      11.86707000       3.21177000
O        1.61751600      11.74666667      12.27177000
O        9.76324200      13.09459667      12.27177000
O        9.76324200      10.39873667      12.27177000
O        4.26051600      10.27833333       7.74177000
O        1.83424200      11.62626333       7.74177000
O        1.83424200       8.93040333       7.74177000
Cr       5.28600000       8.81000000       8.68854000
Cr       5.28600000       8.81000000      11.32500000
Cr       2.64300000       7.34166667       4.15854000
Cr       2.64300000       7.34166667       6.79500000
Cr       5.28600000       5.87333333      13.21854000
Cr       5.28600000       5.87333333       2.26500000
Cr       5.28600000       8.81000000       4.53000000
Cr       5.28600000       8.81000000       1.89354000
Cr       2.64300000       7.34166667       0.00000000
Cr       2.64300000       7.34166667      10.95354000
Cr       5.28600000       5.87333333       9.06000000
Cr       5.28600000       5.87333333       6.42354000
O        3.66848400       8.81000000      10.00677000
O        6.09475800       7.46207000      10.00677000
O        3.45175800       5.75293000      10.00677000
O        1.02548400       7.34166667       5.47677000
O        3.45175800       5.99373667       5.47677000
O        3.45175800       8.68959667       5.47677000
O        3.66848400       5.87333333       0.94677000
O        6.09475800       4.52540333       0.94677000
O        6.09475800       7.22126333       0.94677000
O        1.61751600       8.81000000       3.21177000
O        7.12024200       5.75293000       3.21177000
O        4.47724200       7.46207000       3.21177000
O        4.26051600       7.34166667      12.27177000
O        1.83424200       8.68959667      12.27177000
O        1.83424200       5.99373667      12.27177000
O        6.90351600       5.87333333       7.74177000
O        4.47724200       7.22126333       7.74177000
O        4.47724200       4.52540333       7.74177000
Cr       7.92900000       4.40500000       8.68854000
Cr       7.92900000       4.40500000      11.32500000
Cr       5.28600000       2.93666667       4.15854000
Cr       5.28600000       2.93666667       6.79500000
Cr       7.92900000       1.46833333      13.21854000
Cr       7.92900000       1.46833333       2.26500000
Cr       7.92900000       4.40500000       4.53000000
Cr       7.92900000       4.40500000       1.89354000
Cr       5.28600000       2.93666667       0.00000000
Cr       5.28600000       2.93666667      10.95354000
Cr       7.92900000       1.46833333       9.06000000
Cr       7.92900000       1.46833333       6.42354000
O        6.31148400       4.40500000      10.00677000
O        8.73775800       3.05707000      10.00677000
O        6.09475800       1.34793000      10.00677000
O        3.66848400       2.93666667       5.47677000
O        6.09475800       1.58873667       5.47677000
O        6.09475800       4.28459667       5.47677000
O        6.31148400       1.46833333       0.94677000
O        8.73775800       0.12040333       0.94677000
O        8.73775800       2.81626333       0.94677000
O        4.26051600       4.40500000       3.21177000
O        9.76324200       1.34793000       3.21177000
O        7.12024200       3.05707000       3.21177000
O        6.90351600       2.93666667      12.27177000
O        4.47724200       4.28459667      12.27177000
O        4.47724200       1.58873667      12.27177000
O        9.54651600       1.46833333       7.74177000
O        7.12024200       2.81626333       7.74177000
O        7.12024200       0.12040333       7.74177000
Cr       5.28600000       0.00000000       8.68854000
Cr       5.28600000       0.00000000      11.32500000
Cr       2.64300000      16.15166667       4.15854000
Cr       2.64300000      16.15166667       6.79500000
Cr       5.28600000      14.68333333      13.21854000
Cr       5.28600000      14.68333333       2.26500000
Cr       5.28600000       0.00000000       4.53000000
Cr       5.28600000       0.00000000       1.89354000
Cr       2.64300000      16.15166667       0.00000000
Cr       2.64300000      16.15166667      10.95354000
Cr       5.28600000      14.68333333       9.06000000
Cr       5.28600000      14.68333333       6.42354000
O        3.66848400       0.00000000      10.00677000
O        6.09475800      16.27207000      10.00677000
O        3.45175800      14.56293000      10.00677000
O        1.02548400      16.15166667       5.47677000
O        3.45175800      14.80373667       5.47677000
O        3.45175800      17.49959667       5.47677000
O        3.66848400      14.68333333       0.94677000
O        6.09475800      13.33540333       0.94677000
O        6.09475800      16.03126333       0.94677000
O        1.61751600       0.00000000       3.21177000
O        7.12024200      14.56293000       3.21177000
O        4.47724200      16.27207000       3.21177000
O        4.26051600      16.15166667      12.27177000
O        1.83424200      17.49959667      12.27177000
O        1.83424200      14.80373667      12.27177000
O        6.90351600      14.68333333       7.74177000
O        4.47724200      16.03126333       7.74177000
O        4.47724200      13.33540333       7.74177000
Cr       7.92900000      13.21500000       8.68854000
Cr       7.92900000      13.21500000      11.32500000
Cr       5.28600000      11.74666667       4.15854000
Cr       5.28600000      11.74666667       6.79500000
Cr       7.92900000      10.27833333      13.21854000
Cr       7.92900000      10.27833333       2.26500000
Cr       7.92900000      13.21500000       4.53000000
Cr       7.92900000      13.21500000       1.89354000
Cr       5.28600000      11.74666667       0.00000000
Cr       5.28600000      11.74666667      10.95354000
Cr       7.92900000      10.27833333       9.06000000
Cr       7.92900000      10.27833333       6.42354000
O        6.31148400      13.21500000      10.00677000
O        8.73775800      11.86707000      10.00677000
O        6.09475800      10.15793000      10.00677000
O        3.66848400      11.74666667       5.47677000
O        6.09475800      10.39873667       5.47677000
O        6.09475800      13.09459667       5.47677000
O        6.31148400      10.27833333       0.94677000
O        8.73775800       8.93040333       0.94677000
O        8.73775800      11.62626333       0.94677000
O        4.26051600      13.21500000       3.21177000
O        9.76324200      10.15793000       3.21177000
O        7.12024200      11.86707000       3.21177000
O        6.90351600      11.74666667      12.27177000
O        4.47724200      13.09459667      12.27177000
O        4.47724200      10.39873667      12.27177000
O        9.54651600      10.27833333       7.74177000
O        7.12024200      11.62626333       7.74177000
O        7.12024200       8.93040333       7.74177000
Cr       0.00000000       8.81000000       8.68854000
Cr       0.00000000       8.81000000      11.32500000
Cr       7.92900000       7.34166667       4.15854000
Cr       7.92900000       7.34166667       6.79500000
Cr      -0.00000000       5.87333333      13.21854000
Cr      -0.00000000       5.87333333       2.26500000
Cr       0.00000000       8.81000000       4.53000000
Cr       0.00000000       8.81000000       1.89354000
Cr       7.92900000       7.34166667       0.00000000
Cr       7.92900000       7.34166667      10.95354000
Cr      -0.00000000       5.87333333       9.06000000
Cr      -0.00000000       5.87333333       6.42354000
O        8.95448400       8.81000000      10.00677000
O        0.80875800       7.46207000      10.00677000
O        8.73775800       5.75293000      10.00677000
O        6.31148400       7.34166667       5.47677000
O        8.73775800       5.99373667       5.47677000
O        8.73775800       8.68959667       5.47677000
O        8.95448400       5.87333333       0.94677000
O        0.80875800       4.52540333       0.94677000
O        0.80875800       7.22126333       0.94677000
O        6.90351600       8.81000000       3.21177000
O        1.83424200       5.75293000       3.21177000
O        9.76324200       7.46207000       3.21177000
O        9.54651600       7.34166667      12.27177000
O        7.12024200       8.68959667      12.27177000
O        7.12024200       5.99373667      12.27177000
O        1.61751600       5.87333333       7.74177000
O        9.76324200       7.22126333       7.74177000
O        9.76324200       4.52540333       7.74177000
Cr       2.64300000       4.40500000       8.68854000
Cr       2.64300000       4.40500000      11.32500000
Cr      -0.00000000       2.93666667       4.15854000
Cr      -0.00000000       2.93666667       6.79500000
Cr       2.64300000       1.46833333      13.21854000
Cr       2.64300000       1.46833333       2.26500000
Cr       2.64300000       4.40500000       4.53000000
Cr       2.64300000       4.40500000       1.89354000
Cr      -0.00000000       2.93666667       0.00000000
Cr      -0.00000000       2.93666667      10.95354000
Cr       2.64300000       1.46833333       9.06000000
Cr       2.64300000       1.46833333       6.42354000
O        1.02548400       4.40500000      10.00677000
O        3.45175800       3.05707000      10.00677000
O        0.80875800       1.34793000      10.00677000
O        8.95448400       2.93666667       5.47677000
O        0.80875800       1.58873667       5.47677000
O        0.80875800       4.28459667       5.47677000
O        1.02548400       1.46833333       0.94677000
O        3.45175800       0.12040333       0.94677000
O        3.45175800       2.81626333       0.94677000
O        9.54651600       4.40500000       3.21177000
O        4.47724200       1.34793000       3.21177000
O        1.83424200       3.05707000       3.21177000
O        1.61751600       2.93666667      12.27177000
O        9.76324200       4.28459667      12.27177000
O        9.76324200       1.58873667      12.27177000
O        4.26051600       1.46833333       7.74177000
O        1.83424200       2.81626333       7.74177000
O        1.83424200       0.12040333       7.74177000
Ni       0.00000000       0.00000000      15.21854000
O        2.64300000       0.00000000      15.21854000
Ni       0.00000000       2.20250000      17.30704000
O        2.64300000       2.20250000      17.30704000
Ni       2.64300000       0.00000000      17.30704000
O        0.00000000       0.00000000      17.30704000
Ni       2.64300000       2.20250000      15.21854000
O        0.00000000       2.20250000      15.21854000
Ni       0.00000000       0.00000000      19.39554000
O        2.64300000       0.00000000      19.39554000
Ni       0.00000000       2.20250000      21.48404000
O        2.64300000       2.20250000      21.48404000
Ni       2.64300000       0.00000000      21.48404000
O        0.00000000       0.00000000      21.48404000
Ni       2.64300000       2.20250000      19.39554000
O        0.00000000       2.20250000      19.39554000
Ni       0.00000000       0.00000000      23.57254000
O        2.64300000       0.00000000      23.57254000
Ni       0.00000000       2.20250000      25.66104000
O        2.64300000       2.20250000      25.66104000
Ni       2.64300000       0.00000000      25.66104000
O        0.00000000       0.00000000      25.66104000
Ni       2.64300000       2.20250000      23.57254000
O        0.00000000       2.20250000      23.57254000
Ni       0.00000000       4.40500000      15.21854000
O        2.64300000       4.40500000      15.21854000
Ni       0.00000000       6.60750000      17.30704000
O        2.64300000       6.60750000      17.30704000
Ni       2.64300000       4.40500000      17.30704000
O        0.00000000       4.40500000      17.30704000
Ni       2.64300000       6.60750000      15.21854000
O        0.00000000       6.60750000      15.21854000
Ni       0.00000000       4.40500000      19.39554000
O        2.64300000       4.40500000      19.39554000
Ni       0.00000000       6.60750000      21.48404000
O        2.64300000       6.60750000      21.48404000
Ni       2.64300000       4.40500000      21.48404000
O        0.00000000       4.40500000      21.48404000
Ni       2.64300000       6.60750000      19.39554000
O        0.00000000       6.60750000      19.39554000
Ni       0.00000000       4.40500000      23.57254000
O        2.64300000       4.40500000      23.57254000
Ni       0.00000000       6.60750000      25.66104000
O        2.64300000       6.60750000      25.66104000
Ni       2.64300000       4.40500000      25.66104000
O        0.00000000       4.40500000      25.66104000
Ni       2.64300000       6.60750000      23.57254000
O        0.00000000       6.60750000      23.57254000
Ni       0.00000000       8.81000000      15.21854000
O        2.64300000       8.81000000      15.21854000
Ni       0.00000000      11.01250000      17.30704000
O        2.64300000      11.01250000      17.30704000
Ni       2.64300000       8.81000000      17.30704000
O        0.00000000       8.81000000      17.30704000
Ni       2.64300000      11.01250000      15.21854000
O        0.00000000      11.01250000      15.21854000
Ni       0.00000000       8.81000000      19.39554000
O        2.64300000       8.81000000      19.39554000
Ni       0.00000000      11.01250000      21.48404000
O        2.64300000      11.01250000      21.48404000
Ni       2.64300000       8.81000000      21.48404000
O        0.00000000       8.81000000      21.48404000
Ni       2.64300000      11.01250000      19.39554000
O        0.00000000      11.01250000      19.39554000
Ni       0.00000000       8.81000000      23.57254000
O        2.64300000       8.81000000      23.57254000
Ni       0.00000000      11.01250000      25.66104000
O        2.64300000      11.01250000      25.66104000
Ni       2.64300000       8.81000000      25.66104000
O        0.00000000       8.81000000      25.66104000
Ni       2.64300000      11.01250000      23.57254000
O        0.00000000      11.01250000      23.57254000
Ni       0.00000000      13.21500000      15.21854000
O        2.64300000      13.21500000      15.21854000
Ni       0.00000000      15.41750000      17.30704000
O        2.64300000      15.41750000      17.30704000
Ni       2.64300000      13.21500000      17.30704000
O        0.00000000      13.21500000      17.30704000
Ni       2.64300000      15.41750000      15.21854000
O        0.00000000      15.41750000      15.21854000
Ni       0.00000000      13.21500000      19.39554000
O        2.64300000      13.21500000      19.39554000
Ni       0.00000000      15.41750000      21.48404000
O        2.64300000      15.41750000      21.48404000
Ni       2.64300000      13.21500000      21.48404000
O        0.00000000      13.21500000      21.48404000
Ni       2.64300000      15.41750000      19.39554000
O        0.00000000      15.41750000      19.39554000
Ni       0.00000000      13.21500000      23.57254000
O        2.64300000      13.21500000      23.57254000
Ni       0.00000000      15.41750000      25.66104000
O        2.64300000      15.41750000      25.66104000
Ni       2.64300000      13.21500000      25.66104000
O        0.00000000      13.21500000      25.66104000
Ni       2.64300000      15.41750000      23.57254000
O        0.00000000      15.41750000      23.57254000
Ni       5.28600000       0.00000000      15.21854000
O        7.92900000       0.00000000      15.21854000
Ni       5.28600000       2.20250000      17.30704000
O        7.92900000       2.20250000      17.30704000
Ni       7.92900000       0.00000000      17.30704000
O        5.28600000       0.00000000      17.30704000
Ni       7.92900000       2.20250000      15.21854000
O        5.28600000       2.20250000      15.21854000
Ni       5.28600000       0.00000000      19.39554000
O        7.92900000       0.00000000      19.39554000
Ni       5.28600000       2.20250000      21.48404000
O        7.92900000       2.20250000      21.48404000
Ni       7.92900000       0.00000000      21.48404000
O        5.28600000       0.00000000      21.48404000
Ni       7.92900000       2.20250000      19.39554000
O        5.28600000       2.20250000      19.39554000
Ni       5.28600000       0.00000000      23.57254000
O        7.92900000       0.00000000      23.57254000
Ni       5.28600000       2.20250000      25.66104000
O        7.92900000       2.20250000      25.66104000
Ni       7.92900000       0.00000000      25.66104000
O        5.28600000       0.00000000      25.66104000
Ni       7.92900000       2.20250000      23.57254000
O        5.28600000       2.20250000      23.57254000
Ni       5.28600000       4.40500000      15.21854000
O        7.92900000       4.40500000      15.21854000
Ni       5.28600000       6.60750000      17.30704000
O        7.92900000       6.60750000      17.30704000
Ni       7.92900000       4.40500000      17.30704000
O        5.28600000       4.40500000      17.30704000
Ni       7.92900000       6.60750000      15.21854000
O        5.28600000       6.60750000      15.21854000
Ni       5.28600000       4.40500000      19.39554000
O        7.92900000       4.40500000      19.39554000
Ni       5.28600000       6.60750000      21.48404000
O        7.92900000       6.60750000      21.48404000
Ni       7.92900000       4.40500000      21.48404000
O        5.28600000       4.40500000      21.48404000
Ni       7.92900000       6.60750000      19.39554000
O        5.28600000       6.60750000      19.39554000
Ni       5.28600000       4.40500000      23.57254000
O        7.92900000       4.40500000      23.57254000
Ni       5.28600000       6.60750000      25.66104000
O        7.92900000       6.60750000      25.66104000
Ni       7.92900000       4.40500000      25.66104000
O        5.28600000       4.40500000      25.66104000
Ni       7.92900000       6.60750000      23.57254000
O        5.28600000       6.60750000      23.57254000
Ni       5.28600000       8.81000000      15.21854000
O        7.92900000       8.81000000      15.21854000
Ni       5.28600000      11.01250000      17.30704000
O        7.92900000      11.01250000      17.30704000
Ni       7.92900000       8.81000000      17.30704000
O        5.28600000       8.81000000      17.30704000
Ni       7.92900000      11.01250000      15.21854000
O        5.28600000      11.01250000      15.21854000
Ni       5.28600000       8.81000000      19.39554000
O        7.92900000       8.81000000      19.39554000
Ni       5.28600000      11.01250000      21.48404000
O        7.92900000      11.01250000      21.48404000
Ni       7.92900000       8.81000000      21.48404000
O        5.28600000       8.81000000      21.48404000
Ni       7.92900000      11.01250000      19.39554000
O        5.28600000      11.01250000      19.39554000
Ni       5.28600000       8.81000000      23.57254000
O        7.92900000       8.81000000      23.57254000
Ni       5.28600000      11.01250000      25.66104000
O        7.92900000      11.01250000      25.66104000
Ni       7.92900000       8.81000000      25.66104000
O        5.28600000       8.81000000      25.66104000
Ni       7.92900000      11.01250000      23.57254000
O        5.28600000      11.01250000      23.57254000
Ni       5.28600000      13.21500000      15.21854000
O        7.92900000      13.21500000      15.21854000
Ni       5.28600000      15.41750000      17.30704000
O        7.92900000      15.41750000      17.30704000
Ni       7.92900000      13.21500000      17.30704000
O        5.28600000      13.21500000      17.30704000
Ni       7.92900000      15.41750000      15.21854000
O        5.28600000      15.41750000      15.21854000
Ni       5.28600000      13.21500000      19.39554000
O        7.92900000      13.21500000      19.39554000
Ni       5.28600000      15.41750000      21.48404000
O        7.92900000      15.41750000      21.48404000
Ni       7.92900000      13.21500000      21.48404000
O        5.28600000      13.21500000      21.48404000
Ni       7.92900000      15.41750000      19.39554000
O        5.28600000      15.41750000      19.39554000
Ni       5.28600000      13.21500000      23.57254000
O        7.92900000      13.21500000      23.57254000
Ni       5.28600000      15.41750000      25.66104000
O        7.92900000      15.41750000      25.66104000
Ni       7.92900000      13.21500000      25.66104000
O        5.28600000      13.21500000      25.66104000
Ni       7.92900000      15.41750000      23.57254000
O        5.28600000      15.41750000      23.57254000
