Random_8_Score_0.6703
1.0
    17.375729330     0.000000000     0.000000000
     0.000000000    17.375729330     0.000000000
     0.000000000     0.000000000    17.375729330
Al B C Cr Fe Mo Ni
10 10 10 42 18 50 360
Direct
     0.100000000     0.300000000     0.200000000
     0.300000000     0.000000000     0.700000000
     0.300000000     0.700000000     0.800000000
     0.500000000     0.000000000     0.900000000
     0.700000000     0.300000000     0.400000000
     0.700000000     0.800000000     0.300000000
     0.600000000     0.800000000     0.400000000
     0.900000000     0.100000000     0.200000000
     0.800000000     0.900000000     0.700000000
     0.900000000     0.900000000     0.800000000
     0.000000000     0.400000000     0.600000000
     0.100000000     0.900000000     0.600000000
     0.200000000     0.600000000     0.200000000
     0.200000000     0.800000000     0.400000000
     0.300000000     0.900000000     0.400000000
     0.500000000     0.300000000     0.400000000
     0.600000000     0.400000000     0.400000000
     0.700000000     0.700000000     0.000000000
     0.900000000     0.400000000     0.300000000
     0.800000000     0.900000000     0.900000000
     0.000000000     0.000000000     0.400000000
     0.100000000     0.100000000     0.800000000
     0.200000000     0.300000000     0.500000000
     0.300000000     0.500000000     0.600000000
     0.200000000     0.700000000     0.100000000
     0.300000000     0.800000000     0.100000000
     0.500000000     0.600000000     0.500000000
     0.700000000     0.200000000     0.900000000
     0.700000000     0.700000000     0.200000000
     0.800000000     0.800000000     0.600000000
     0.000000000     0.100000000     0.100000000
     0.000000000     0.000000000     0.800000000
     0.100000000     0.000000000     0.900000000
     0.000000000     0.300000000     0.700000000
     0.000000000     0.300000000     0.900000000
     0.000000000     0.500000000     0.100000000
     0.000000000     0.600000000     0.400000000
     0.000000000     0.800000000     0.000000000
     0.000000000     0.900000000     0.300000000
     0.100000000     0.900000000     0.800000000
     0.300000000     0.100000000     0.200000000
     0.300000000     0.000000000     0.900000000
     0.300000000     0.100000000     0.800000000
     0.200000000     0.300000000     0.900000000
     0.200000000     0.400000000     0.800000000
     0.200000000     0.700000000     0.300000000
     0.200000000     0.700000000     0.500000000
     0.200000000     0.600000000     0.600000000
     0.400000000     0.000000000     0.800000000
     0.400000000     0.200000000     0.000000000
     0.500000000     0.300000000     0.000000000
     0.500000000     0.500000000     0.000000000
     0.400000000     0.400000000     0.400000000
     0.500000000     0.400000000     0.500000000
     0.400000000     0.600000000     0.400000000
     0.500000000     0.700000000     0.600000000
     0.400000000     0.900000000     0.500000000
     0.600000000     0.000000000     0.800000000
     0.600000000     0.100000000     0.900000000
     0.600000000     0.300000000     0.300000000
     0.600000000     0.300000000     0.500000000
     0.600000000     0.400000000     0.200000000
     0.600000000     0.600000000     0.000000000
     0.600000000     0.600000000     0.400000000
     0.700000000     0.900000000     0.200000000
     0.600000000     0.900000000     0.500000000
     0.800000000     0.100000000     0.900000000
     0.900000000     0.200000000     0.100000000
     0.800000000     0.200000000     0.600000000
     0.900000000     0.500000000     0.000000000
     0.800000000     0.500000000     0.500000000
     0.900000000     0.400000000     0.500000000
     0.100000000     0.000000000     0.700000000
     0.100000000     0.100000000     0.600000000
     0.000000000     0.300000000     0.100000000
     0.000000000     0.200000000     0.200000000
     0.000000000     0.300000000     0.500000000
     0.100000000     0.200000000     0.900000000
     0.100000000     0.400000000     0.300000000
     0.200000000     0.100000000     0.100000000
     0.300000000     0.000000000     0.500000000
     0.200000000     0.300000000     0.700000000
     0.200000000     0.500000000     0.700000000
     0.500000000     0.000000000     0.100000000
     0.500000000     0.100000000     0.600000000
     0.500000000     0.400000000     0.900000000
     0.400000000     0.800000000     0.600000000
     0.600000000     0.000000000     0.400000000
     0.600000000     0.500000000     0.900000000
     0.700000000     0.600000000     0.300000000
     0.100000000     0.100000000     0.200000000
     0.000000000     0.100000000     0.900000000
     0.100000000     0.300000000     0.800000000
     0.100000000     0.600000000     0.500000000
     0.100000000     0.700000000     0.600000000
     0.000000000     0.700000000     0.900000000
     0.100000000     0.800000000     0.100000000
     0.100000000     0.800000000     0.900000000
     0.200000000     0.100000000     0.900000000
     0.300000000     0.300000000     0.000000000
     0.200000000     0.300000000     0.300000000
     0.200000000     0.200000000     0.400000000
     0.200000000     0.600000000     0.000000000
     0.300000000     0.700000000     0.000000000
     0.300000000     0.600000000     0.300000000
     0.200000000     0.800000000     0.600000000
     0.400000000     0.000000000     0.400000000
     0.500000000     0.000000000     0.500000000
     0.400000000     0.300000000     0.100000000
     0.500000000     0.200000000     0.300000000
     0.500000000     0.300000000     0.200000000
     0.500000000     0.200000000     0.900000000
     0.400000000     0.400000000     0.000000000
     0.400000000     0.500000000     0.500000000
     0.400000000     0.700000000     0.100000000
     0.500000000     0.600000000     0.700000000
     0.500000000     0.600000000     0.900000000
     0.400000000     0.800000000     0.000000000
     0.400000000     0.800000000     0.400000000
     0.500000000     0.900000000     0.400000000
     0.600000000     0.100000000     0.100000000
     0.600000000     0.200000000     0.000000000
     0.600000000     0.200000000     0.400000000
     0.700000000     0.300000000     0.800000000
     0.600000000     0.400000000     0.600000000
     0.600000000     0.500000000     0.700000000
     0.700000000     0.500000000     0.600000000
     0.700000000     0.400000000     0.900000000
     0.700000000     0.700000000     0.800000000
     0.600000000     0.900000000     0.100000000
     0.600000000     0.800000000     0.200000000
     0.600000000     0.900000000     0.300000000
     0.800000000     0.200000000     0.000000000
     0.800000000     0.200000000     0.400000000
     0.900000000     0.200000000     0.500000000
     0.900000000     0.300000000     0.400000000
     0.800000000     0.600000000     0.000000000
     0.800000000     0.600000000     0.200000000
     0.800000000     0.700000000     0.500000000
     0.900000000     0.900000000     0.600000000
     0.000000000     0.000000000     0.000000000
     0.100000000     0.000000000     0.100000000
     0.100000000     0.100000000     0.000000000
     0.000000000     0.000000000     0.200000000
     0.000000000     0.100000000     0.300000000
     0.100000000     0.000000000     0.300000000
     0.000000000     0.100000000     0.500000000
     0.100000000     0.000000000     0.500000000
     0.100000000     0.100000000     0.400000000
     0.000000000     0.000000000     0.600000000
     0.000000000     0.100000000     0.700000000
     0.000000000     0.200000000     0.000000000
     0.100000000     0.200000000     0.100000000
     0.100000000     0.300000000     0.000000000
     0.000000000     0.300000000     0.300000000
     0.100000000     0.200000000     0.300000000
     0.000000000     0.200000000     0.400000000
     0.100000000     0.200000000     0.500000000
     0.100000000     0.300000000     0.400000000
     0.000000000     0.200000000     0.600000000
     0.100000000     0.200000000     0.700000000
     0.100000000     0.300000000     0.600000000
     0.000000000     0.200000000     0.800000000
     0.000000000     0.400000000     0.000000000
     0.100000000     0.400000000     0.100000000
     0.100000000     0.500000000     0.000000000
     0.000000000     0.400000000     0.200000000
     0.000000000     0.500000000     0.300000000
     0.100000000     0.500000000     0.200000000
     0.000000000     0.400000000     0.400000000
     0.000000000     0.500000000     0.500000000
     0.100000000     0.400000000     0.500000000
     0.100000000     0.500000000     0.400000000
     0.000000000     0.500000000     0.700000000
     0.100000000     0.400000000     0.700000000
     0.100000000     0.500000000     0.600000000
     0.000000000     0.400000000     0.800000000
     0.000000000     0.500000000     0.900000000
     0.100000000     0.400000000     0.900000000
     0.100000000     0.500000000     0.800000000
     0.000000000     0.600000000     0.000000000
     0.000000000     0.700000000     0.100000000
     0.100000000     0.600000000     0.100000000
     0.100000000     0.700000000     0.000000000
     0.000000000     0.600000000     0.200000000
     0.000000000     0.700000000     0.300000000
     0.100000000     0.600000000     0.300000000
     0.100000000     0.700000000     0.200000000
     0.000000000     0.700000000     0.500000000
     0.100000000     0.700000000     0.400000000
     0.000000000     0.600000000     0.600000000
     0.000000000     0.700000000     0.700000000
     0.100000000     0.600000000     0.700000000
     0.000000000     0.600000000     0.800000000
     0.100000000     0.600000000     0.900000000
     0.100000000     0.700000000     0.800000000
     0.000000000     0.900000000     0.100000000
     0.100000000     0.900000000     0.000000000
     0.000000000     0.800000000     0.200000000
     0.100000000     0.800000000     0.300000000
     0.100000000     0.900000000     0.200000000
     0.000000000     0.800000000     0.400000000
     0.000000000     0.900000000     0.500000000
     0.100000000     0.800000000     0.500000000
     0.100000000     0.900000000     0.400000000
     0.000000000     0.800000000     0.600000000
     0.000000000     0.900000000     0.700000000
     0.100000000     0.800000000     0.700000000
     0.000000000     0.800000000     0.800000000
     0.000000000     0.900000000     0.900000000
     0.200000000     0.000000000     0.000000000
     0.300000000     0.000000000     0.100000000
     0.300000000     0.100000000     0.000000000
     0.200000000     0.000000000     0.200000000
     0.200000000     0.100000000     0.300000000
     0.300000000     0.000000000     0.300000000
     0.200000000     0.000000000     0.400000000
     0.200000000     0.100000000     0.500000000
     0.300000000     0.100000000     0.400000000
     0.200000000     0.000000000     0.600000000
     0.200000000     0.100000000     0.700000000
     0.300000000     0.100000000     0.600000000
     0.200000000     0.000000000     0.800000000
     0.200000000     0.200000000     0.000000000
     0.200000000     0.300000000     0.100000000
     0.300000000     0.200000000     0.100000000
     0.200000000     0.200000000     0.200000000
     0.300000000     0.200000000     0.300000000
     0.300000000     0.300000000     0.200000000
     0.300000000     0.200000000     0.500000000
     0.300000000     0.300000000     0.400000000
     0.200000000     0.200000000     0.600000000
     0.300000000     0.200000000     0.700000000
     0.300000000     0.300000000     0.600000000
     0.200000000     0.200000000     0.800000000
     0.300000000     0.200000000     0.900000000
     0.300000000     0.300000000     0.800000000
     0.200000000     0.400000000     0.000000000
     0.200000000     0.500000000     0.100000000
     0.300000000     0.400000000     0.100000000
     0.300000000     0.500000000     0.000000000
     0.200000000     0.400000000     0.200000000
     0.200000000     0.500000000     0.300000000
     0.300000000     0.400000000     0.300000000
     0.300000000     0.500000000     0.200000000
     0.200000000     0.400000000     0.400000000
     0.200000000     0.500000000     0.500000000
     0.300000000     0.400000000     0.500000000
     0.300000000     0.500000000     0.400000000
     0.200000000     0.400000000     0.600000000
     0.300000000     0.400000000     0.700000000
     0.200000000     0.500000000     0.900000000
     0.300000000     0.400000000     0.900000000
     0.300000000     0.500000000     0.800000000
     0.300000000     0.600000000     0.100000000
     0.300000000     0.700000000     0.200000000
     0.200000000     0.600000000     0.400000000
     0.300000000     0.600000000     0.500000000
     0.300000000     0.700000000     0.400000000
     0.200000000     0.700000000     0.700000000
     0.300000000     0.600000000     0.700000000
     0.300000000     0.700000000     0.600000000
     0.200000000     0.600000000     0.800000000
     0.200000000     0.700000000     0.900000000
     0.300000000     0.600000000     0.900000000
     0.200000000     0.800000000     0.000000000
     0.200000000     0.900000000     0.100000000
     0.300000000     0.900000000     0.000000000
     0.200000000     0.800000000     0.200000000
     0.200000000     0.900000000     0.300000000
     0.300000000     0.800000000     0.300000000
     0.300000000     0.900000000     0.200000000
     0.200000000     0.900000000     0.500000000
     0.300000000     0.800000000     0.500000000
     0.200000000     0.900000000     0.700000000
     0.300000000     0.800000000     0.700000000
     0.300000000     0.900000000     0.600000000
     0.200000000     0.800000000     0.800000000
     0.200000000     0.900000000     0.900000000
     0.300000000     0.800000000     0.900000000
     0.300000000     0.900000000     0.800000000
     0.400000000     0.000000000     0.000000000
     0.400000000     0.100000000     0.100000000
     0.500000000     0.100000000     0.000000000
     0.400000000     0.000000000     0.200000000
     0.400000000     0.100000000     0.300000000
     0.500000000     0.000000000     0.300000000
     0.500000000     0.100000000     0.200000000
     0.400000000     0.100000000     0.500000000
     0.500000000     0.100000000     0.400000000
     0.400000000     0.000000000     0.600000000
     0.400000000     0.100000000     0.700000000
     0.500000000     0.000000000     0.700000000
     0.400000000     0.100000000     0.900000000
     0.500000000     0.100000000     0.800000000
     0.500000000     0.200000000     0.100000000
     0.400000000     0.200000000     0.200000000
     0.400000000     0.300000000     0.300000000
     0.400000000     0.200000000     0.400000000
     0.400000000     0.300000000     0.500000000
     0.500000000     0.200000000     0.500000000
     0.400000000     0.200000000     0.600000000
     0.400000000     0.300000000     0.700000000
     0.500000000     0.200000000     0.700000000
     0.500000000     0.300000000     0.600000000
     0.400000000     0.200000000     0.800000000
     0.400000000     0.300000000     0.900000000
     0.500000000     0.300000000     0.800000000
     0.400000000     0.500000000     0.100000000
     0.500000000     0.400000000     0.100000000
     0.400000000     0.400000000     0.200000000
     0.400000000     0.500000000     0.300000000
     0.500000000     0.400000000     0.300000000
     0.500000000     0.500000000     0.200000000
     0.500000000     0.500000000     0.400000000
     0.400000000     0.400000000     0.600000000
     0.400000000     0.500000000     0.700000000
     0.500000000     0.400000000     0.700000000
     0.500000000     0.500000000     0.600000000
     0.400000000     0.400000000     0.800000000
     0.400000000     0.500000000     0.900000000
     0.500000000     0.500000000     0.800000000
     0.400000000     0.600000000     0.000000000
     0.500000000     0.600000000     0.100000000
     0.500000000     0.700000000     0.000000000
     0.400000000     0.600000000     0.200000000
     0.400000000     0.700000000     0.300000000
     0.500000000     0.600000000     0.300000000
     0.500000000     0.700000000     0.200000000
     0.400000000     0.700000000     0.500000000
     0.500000000     0.700000000     0.400000000
     0.400000000     0.600000000     0.600000000
     0.400000000     0.700000000     0.700000000
     0.400000000     0.600000000     0.800000000
     0.400000000     0.700000000     0.900000000
     0.500000000     0.700000000     0.800000000
     0.400000000     0.900000000     0.100000000
     0.500000000     0.800000000     0.100000000
     0.500000000     0.900000000     0.000000000
     0.400000000     0.800000000     0.200000000
     0.400000000     0.900000000     0.300000000
     0.500000000     0.800000000     0.300000000
     0.500000000     0.900000000     0.200000000
     0.500000000     0.800000000     0.500000000
     0.400000000     0.900000000     0.700000000
     0.500000000     0.800000000     0.700000000
     0.500000000     0.900000000     0.600000000
     0.400000000     0.800000000     0.800000000
     0.400000000     0.900000000     0.900000000
     0.500000000     0.800000000     0.900000000
     0.500000000     0.900000000     0.800000000
     0.600000000     0.000000000     0.000000000
     0.700000000     0.000000000     0.100000000
     0.700000000     0.100000000     0.000000000
     0.600000000     0.000000000     0.200000000
     0.600000000     0.100000000     0.300000000
     0.700000000     0.000000000     0.300000000
     0.700000000     0.100000000     0.200000000
     0.600000000     0.100000000     0.500000000
     0.700000000     0.000000000     0.500000000
     0.700000000     0.100000000     0.400000000
     0.600000000     0.000000000     0.600000000
     0.600000000     0.100000000     0.700000000
     0.700000000     0.000000000     0.700000000
     0.700000000     0.100000000     0.600000000
     0.700000000     0.000000000     0.900000000
     0.700000000     0.100000000     0.800000000
     0.600000000     0.300000000     0.100000000
     0.700000000     0.200000000     0.100000000
     0.700000000     0.300000000     0.000000000
     0.600000000     0.200000000     0.200000000
     0.700000000     0.200000000     0.300000000
     0.700000000     0.300000000     0.200000000
     0.700000000     0.200000000     0.500000000
     0.600000000     0.200000000     0.600000000
     0.600000000     0.300000000     0.700000000
     0.700000000     0.200000000     0.700000000
     0.700000000     0.300000000     0.600000000
     0.600000000     0.200000000     0.800000000
     0.600000000     0.300000000     0.900000000
     0.600000000     0.400000000     0.000000000
     0.600000000     0.500000000     0.100000000
     0.700000000     0.400000000     0.100000000
     0.700000000     0.500000000     0.000000000
     0.600000000     0.500000000     0.300000000
     0.700000000     0.400000000     0.300000000
     0.700000000     0.500000000     0.200000000
     0.600000000     0.500000000     0.500000000
     0.700000000     0.400000000     0.500000000
     0.700000000     0.500000000     0.400000000
     0.700000000     0.400000000     0.700000000
     0.600000000     0.400000000     0.800000000
     0.700000000     0.500000000     0.800000000
     0.600000000     0.700000000     0.100000000
     0.700000000     0.600000000     0.100000000
     0.600000000     0.600000000     0.200000000
     0.600000000     0.700000000     0.300000000
     0.600000000     0.700000000     0.500000000
     0.700000000     0.600000000     0.500000000
     0.700000000     0.700000000     0.400000000
     0.600000000     0.600000000     0.600000000
     0.600000000     0.700000000     0.700000000
     0.700000000     0.600000000     0.700000000
     0.700000000     0.700000000     0.600000000
     0.600000000     0.600000000     0.800000000
     0.600000000     0.700000000     0.900000000
     0.700000000     0.600000000     0.900000000
     0.600000000     0.800000000     0.000000000
     0.700000000     0.800000000     0.100000000
     0.700000000     0.900000000     0.000000000
     0.700000000     0.800000000     0.500000000
     0.700000000     0.900000000     0.400000000
     0.600000000     0.800000000     0.600000000
     0.600000000     0.900000000     0.700000000
     0.700000000     0.800000000     0.700000000
     0.700000000     0.900000000     0.600000000
     0.600000000     0.800000000     0.800000000
     0.600000000     0.900000000     0.900000000
     0.700000000     0.800000000     0.900000000
     0.700000000     0.900000000     0.800000000
     0.800000000     0.000000000     0.000000000
     0.800000000     0.100000000     0.100000000
     0.900000000     0.000000000     0.100000000
     0.900000000     0.100000000     0.000000000
     0.800000000     0.000000000     0.200000000
     0.800000000     0.100000000     0.300000000
     0.900000000     0.000000000     0.300000000
     0.800000000     0.000000000     0.400000000
     0.800000000     0.100000000     0.500000000
     0.900000000     0.000000000     0.500000000
     0.900000000     0.100000000     0.400000000
     0.800000000     0.000000000     0.600000000
     0.800000000     0.100000000     0.700000000
     0.900000000     0.000000000     0.700000000
     0.900000000     0.100000000     0.600000000
     0.800000000     0.000000000     0.800000000
     0.900000000     0.000000000     0.900000000
     0.900000000     0.100000000     0.800000000
     0.800000000     0.300000000     0.100000000
     0.900000000     0.300000000     0.000000000
     0.800000000     0.200000000     0.200000000
     0.800000000     0.300000000     0.300000000
     0.900000000     0.200000000     0.300000000
     0.900000000     0.300000000     0.200000000
     0.800000000     0.300000000     0.500000000
     0.800000000     0.300000000     0.700000000
     0.900000000     0.200000000     0.700000000
     0.900000000     0.300000000     0.600000000
     0.800000000     0.200000000     0.800000000
     0.800000000     0.300000000     0.900000000
     0.900000000     0.200000000     0.900000000
     0.900000000     0.300000000     0.800000000
     0.800000000     0.400000000     0.000000000
     0.800000000     0.500000000     0.100000000
     0.900000000     0.400000000     0.100000000
     0.800000000     0.400000000     0.200000000
     0.800000000     0.500000000     0.300000000
     0.900000000     0.500000000     0.200000000
     0.800000000     0.400000000     0.400000000
     0.900000000     0.500000000     0.400000000
     0.800000000     0.400000000     0.600000000
     0.800000000     0.500000000     0.700000000
     0.900000000     0.400000000     0.700000000
     0.900000000     0.500000000     0.600000000
     0.800000000     0.400000000     0.800000000
     0.800000000     0.500000000     0.900000000
     0.900000000     0.400000000     0.900000000
     0.900000000     0.500000000     0.800000000
     0.800000000     0.700000000     0.100000000
     0.900000000     0.600000000     0.100000000
     0.900000000     0.700000000     0.000000000
     0.800000000     0.700000000     0.300000000
     0.900000000     0.600000000     0.300000000
     0.900000000     0.700000000     0.200000000
     0.800000000     0.600000000     0.400000000
     0.900000000     0.600000000     0.500000000
     0.900000000     0.700000000     0.400000000
     0.800000000     0.600000000     0.600000000
     0.800000000     0.700000000     0.700000000
     0.900000000     0.600000000     0.700000000
     0.900000000     0.700000000     0.600000000
     0.800000000     0.600000000     0.800000000
     0.800000000     0.700000000     0.900000000
     0.900000000     0.600000000     0.900000000
     0.900000000     0.700000000     0.800000000
     0.800000000     0.800000000     0.000000000
     0.800000000     0.900000000     0.100000000
     0.900000000     0.800000000     0.100000000
     0.900000000     0.900000000     0.000000000
     0.800000000     0.800000000     0.200000000
     0.800000000     0.900000000     0.300000000
     0.900000000     0.800000000     0.300000000
     0.900000000     0.900000000     0.200000000
     0.800000000     0.800000000     0.400000000
     0.800000000     0.900000000     0.500000000
     0.900000000     0.800000000     0.500000000
     0.900000000     0.900000000     0.400000000
     0.900000000     0.800000000     0.700000000
     0.800000000     0.800000000     0.800000000
     0.900000000     0.800000000     0.900000000