12×12×12 Sample_027 Score_0.8819 Seed_1781199336
1.0
    41.701750391     0.000000000     0.000000000
     0.000000000    41.701750391     0.000000000
     0.000000000     0.000000000    41.701750391
Al B C Cr Fe Mo Ni
138 138 138 581 249 691 4977
Direct
     0.000000000     0.041666667     0.625000000
     0.000000000     0.000000000     0.916666667
     0.000000000     0.250000000     0.500000000
     0.000000000     0.291666667     0.541666667
     0.041666667     0.416666667     0.791666667
     0.041666667     0.541666667     0.416666667
     0.041666667     0.625000000     0.666666667
     0.000000000     0.875000000     0.125000000
     0.083333333     0.125000000     0.458333333
     0.125000000     0.166666667     0.375000000
     0.125000000     0.208333333     0.333333333
     0.083333333     0.208333333     0.791666667
     0.125000000     0.458333333     0.083333333
     0.083333333     0.583333333     0.083333333
     0.083333333     0.583333333     0.500000000
     0.083333333     0.750000000     0.666666667
     0.208333333     0.041666667     0.500000000
     0.208333333     0.166666667     0.625000000
     0.208333333     0.291666667     0.250000000
     0.208333333     0.250000000     0.458333333
     0.208333333     0.375000000     0.166666667
     0.166666667     0.375000000     0.458333333
     0.208333333     0.458333333     0.416666667
     0.208333333     0.500000000     0.375000000
     0.166666667     0.500000000     0.416666667
     0.166666667     0.541666667     0.958333333
     0.208333333     0.708333333     0.916666667
     0.166666667     0.750000000     0.166666667
     0.208333333     0.750000000     0.375000000
     0.208333333     0.833333333     0.875000000
     0.208333333     0.916666667     0.291666667
     0.166666667     0.916666667     0.916666667
     0.208333333     0.916666667     0.958333333
     0.291666667     0.208333333     0.583333333
     0.291666667     0.333333333     0.541666667
     0.291666667     0.416666667     0.541666667
     0.291666667     0.583333333     0.875000000
     0.291666667     0.666666667     0.208333333
     0.291666667     0.666666667     0.791666667
     0.250000000     0.958333333     0.708333333
     0.250000000     0.958333333     0.791666667
     0.333333333     0.000000000     0.750000000
     0.375000000     0.125000000     0.083333333
     0.333333333     0.291666667     0.375000000
     0.333333333     0.291666667     0.708333333
     0.333333333     0.625000000     0.291666667
     0.333333333     0.708333333     0.375000000
     0.458333333     0.041666667     0.000000000
     0.458333333     0.125000000     0.750000000
     0.458333333     0.166666667     0.458333333
     0.458333333     0.375000000     0.166666667
     0.458333333     0.458333333     0.000000000
     0.416666667     0.458333333     0.708333333
     0.458333333     0.625000000     0.083333333
     0.416666667     0.625000000     0.208333333
     0.416666667     0.583333333     0.500000000
     0.416666667     0.625000000     0.541666667
     0.416666667     0.666666667     0.666666667
     0.458333333     0.750000000     0.375000000
     0.458333333     0.791666667     0.750000000
     0.500000000     0.000000000     0.083333333
     0.541666667     0.000000000     0.208333333
     0.500000000     0.000000000     0.416666667
     0.541666667     0.041666667     0.750000000
     0.500000000     0.166666667     0.166666667
     0.541666667     0.208333333     0.750000000
     0.500000000     0.250000000     0.916666667
     0.541666667     0.333333333     0.041666667
     0.500000000     0.333333333     0.166666667
     0.500000000     0.375000000     0.958333333
     0.541666667     0.625000000     0.500000000
     0.541666667     0.708333333     0.166666667
     0.500000000     0.666666667     0.333333333
     0.541666667     0.666666667     0.375000000
     0.500000000     0.708333333     0.458333333
     0.541666667     0.875000000     0.000000000
     0.541666667     0.916666667     0.708333333
     0.583333333     0.000000000     0.250000000
     0.625000000     0.083333333     0.208333333
     0.625000000     0.375000000     0.000000000
     0.583333333     0.416666667     0.583333333
     0.625000000     0.583333333     0.708333333
     0.583333333     0.708333333     0.708333333
     0.625000000     0.750000000     0.041666667
     0.625000000     0.875000000     0.166666667
     0.583333333     0.875000000     0.791666667
     0.625000000     0.958333333     0.000000000
     0.583333333     0.916666667     0.333333333
     0.583333333     0.916666667     0.500000000
     0.625000000     0.958333333     0.916666667
     0.666666667     0.041666667     0.458333333
     0.666666667     0.000000000     0.666666667
     0.666666667     0.166666667     0.583333333
     0.666666667     0.250000000     0.416666667
     0.666666667     0.333333333     0.833333333
     0.708333333     0.625000000     0.916666667
     0.708333333     0.708333333     0.166666667
     0.708333333     0.750000000     0.541666667
     0.666666667     0.750000000     0.833333333
     0.708333333     0.833333333     0.291666667
     0.666666667     0.916666667     0.500000000
     0.708333333     0.958333333     0.833333333
     0.791666667     0.041666667     0.833333333
     0.750000000     0.291666667     0.208333333
     0.750000000     0.291666667     0.458333333
     0.750000000     0.250000000     0.583333333
     0.750000000     0.458333333     0.625000000
     0.791666667     0.458333333     0.916666667
     0.750000000     0.541666667     0.625000000
     0.791666667     0.583333333     0.958333333
     0.750000000     0.791666667     0.291666667
     0.791666667     0.750000000     0.291666667
     0.750000000     0.791666667     0.458333333
     0.791666667     0.833333333     0.375000000
     0.875000000     0.041666667     0.166666667
     0.875000000     0.083333333     0.375000000
     0.875000000     0.166666667     0.458333333
     0.833333333     0.291666667     0.208333333
     0.833333333     0.250000000     0.333333333
     0.875000000     0.250000000     0.708333333
     0.833333333     0.458333333     0.208333333
     0.833333333     0.625000000     0.291666667
     0.875000000     0.666666667     0.625000000
     0.875000000     0.791666667     0.333333333
     0.875000000     0.791666667     0.583333333
     0.875000000     0.791666667     0.916666667
     0.875000000     0.875000000     0.166666667
     0.958333333     0.041666667     0.416666667
     0.958333333     0.083333333     0.791666667
     0.916666667     0.333333333     0.416666667
     0.916666667     0.416666667     0.333333333
     0.916666667     0.416666667     0.500000000
     0.958333333     0.416666667     0.541666667
     0.958333333     0.541666667     0.500000000
     0.958333333     0.708333333     0.583333333
     0.958333333     0.791666667     0.916666667
     0.916666667     0.875000000     0.125000000
     0.916666667     0.958333333     0.041666667
     0.041666667     0.208333333     0.000000000
     0.041666667     0.208333333     0.416666667
     0.000000000     0.250000000     0.083333333
     0.000000000     0.250000000     0.250000000
     0.000000000     0.375000000     0.125000000
     0.041666667     0.833333333     0.541666667
     0.041666667     0.833333333     0.958333333
     0.083333333     0.166666667     0.250000000
     0.125000000     0.291666667     0.166666667
     0.083333333     0.291666667     0.458333333
     0.083333333     0.291666667     0.541666667
     0.125000000     0.375000000     0.166666667
     0.083333333     0.416666667     0.916666667
     0.083333333     0.541666667     0.375000000
     0.125000000     0.500000000     0.875000000
     0.125000000     0.708333333     0.000000000
     0.125000000     0.666666667     0.208333333
     0.125000000     0.708333333     0.583333333
     0.083333333     0.750000000     0.250000000
     0.083333333     0.750000000     0.333333333
     0.083333333     0.833333333     0.833333333
     0.083333333     0.958333333     0.125000000
     0.208333333     0.041666667     0.000000000
     0.208333333     0.291666667     0.166666667
     0.166666667     0.250000000     0.250000000
     0.166666667     0.250000000     0.500000000
     0.208333333     0.250000000     0.625000000
     0.208333333     0.458333333     0.750000000
     0.166666667     0.541666667     0.791666667
     0.208333333     0.583333333     0.875000000
     0.166666667     0.708333333     0.291666667
     0.166666667     0.708333333     0.375000000
     0.166666667     0.750000000     0.833333333
     0.166666667     0.875000000     0.041666667
     0.166666667     0.875000000     0.375000000
     0.166666667     0.833333333     0.750000000
     0.291666667     0.166666667     0.791666667
     0.291666667     0.291666667     0.583333333
     0.291666667     0.333333333     0.291666667
     0.250000000     0.375000000     0.708333333
     0.291666667     0.583333333     0.291666667
     0.250000000     0.666666667     0.500000000
     0.291666667     0.750000000     0.125000000
     0.291666667     0.958333333     0.166666667
     0.250000000     0.958333333     0.541666667
     0.333333333     0.000000000     0.333333333
     0.333333333     0.166666667     0.583333333
     0.333333333     0.166666667     0.750000000
     0.375000000     0.208333333     0.916666667
     0.375000000     0.250000000     0.625000000
     0.333333333     0.375000000     0.791666667
     0.375000000     0.458333333     0.500000000
     0.333333333     0.416666667     0.583333333
     0.333333333     0.458333333     0.708333333
     0.375000000     0.583333333     0.375000000
     0.375000000     0.833333333     0.625000000
     0.416666667     0.166666667     0.083333333
     0.416666667     0.250000000     0.750000000
     0.458333333     0.291666667     0.833333333
     0.416666667     0.375000000     0.291666667
     0.458333333     0.541666667     0.250000000
     0.416666667     0.708333333     0.291666667
     0.458333333     0.708333333     0.833333333
     0.416666667     0.750000000     0.416666667
     0.416666667     0.791666667     0.458333333
     0.458333333     0.791666667     0.666666667
     0.416666667     0.791666667     0.875000000
     0.416666667     0.958333333     0.125000000
     0.458333333     0.958333333     0.916666667
     0.541666667     0.125000000     0.000000000
     0.500000000     0.083333333     0.250000000
     0.500000000     0.208333333     0.458333333
     0.500000000     0.416666667     0.166666667
     0.500000000     0.416666667     0.750000000
     0.500000000     0.625000000     0.208333333
     0.500000000     0.625000000     0.375000000
     0.500000000     0.666666667     0.916666667
     0.500000000     0.750000000     0.750000000
     0.500000000     0.958333333     0.291666667
     0.625000000     0.000000000     0.541666667
     0.583333333     0.083333333     0.666666667
     0.625000000     0.166666667     0.708333333
     0.625000000     0.250000000     0.791666667
     0.625000000     0.375000000     0.333333333
     0.583333333     0.375000000     0.625000000
     0.583333333     0.500000000     0.166666667
     0.625000000     0.583333333     0.875000000
     0.583333333     0.791666667     0.125000000
     0.625000000     0.750000000     0.208333333
     0.583333333     0.750000000     0.250000000
     0.583333333     0.833333333     0.166666667
     0.583333333     0.833333333     0.500000000
     0.625000000     0.916666667     0.375000000
     0.625000000     0.958333333     0.333333333
     0.583333333     0.958333333     0.958333333
     0.708333333     0.041666667     0.750000000
     0.708333333     0.125000000     0.500000000
     0.666666667     0.166666667     0.833333333
     0.666666667     0.291666667     0.458333333
     0.666666667     0.250000000     0.916666667
     0.666666667     0.375000000     0.875000000
     0.666666667     0.458333333     0.708333333
     0.708333333     0.500000000     0.708333333
     0.708333333     0.750000000     0.375000000
     0.708333333     0.875000000     0.250000000
     0.750000000     0.000000000     0.250000000
     0.750000000     0.041666667     0.375000000
     0.750000000     0.041666667     0.791666667
     0.750000000     0.083333333     0.166666667
     0.791666667     0.125000000     0.750000000
     0.750000000     0.166666667     0.083333333
     0.791666667     0.166666667     0.125000000
     0.791666667     0.250000000     0.041666667
     0.791666667     0.333333333     0.708333333
     0.791666667     0.583333333     0.458333333
     0.833333333     0.166666667     0.583333333
     0.833333333     0.291666667     0.541666667
     0.875000000     0.291666667     0.666666667
     0.833333333     0.250000000     0.916666667
     0.875000000     0.416666667     0.541666667
     0.875000000     0.791666667     0.416666667
     0.875000000     0.875000000     0.000000000
     0.833333333     0.916666667     0.583333333
     0.916666667     0.166666667     0.666666667
     0.958333333     0.291666667     0.166666667
     0.916666667     0.250000000     0.833333333
     0.916666667     0.291666667     0.875000000
     0.958333333     0.333333333     0.291666667
     0.958333333     0.375000000     0.833333333
     0.916666667     0.416666667     0.083333333
     0.916666667     0.541666667     0.541666667
     0.916666667     0.500000000     0.833333333
     0.958333333     0.625000000     0.916666667
     0.958333333     0.666666667     0.708333333
     0.916666667     0.791666667     0.625000000
     0.958333333     0.791666667     0.750000000
     0.916666667     0.875000000     0.291666667
     0.958333333     0.958333333     0.583333333
     0.041666667     0.041666667     0.000000000
     0.000000000     0.083333333     0.000000000
     0.041666667     0.083333333     0.375000000
     0.041666667     0.250000000     0.291666667
     0.041666667     0.250000000     0.625000000
     0.000000000     0.458333333     0.458333333
     0.000000000     0.458333333     0.791666667
     0.041666667     0.583333333     0.958333333
     0.041666667     0.666666667     0.458333333
     0.000000000     0.750000000     0.500000000
     0.125000000     0.000000000     0.125000000
     0.083333333     0.000000000     0.333333333
     0.083333333     0.166666667     0.166666667
     0.125000000     0.291666667     0.250000000
     0.083333333     0.625000000     0.041666667
     0.125000000     0.583333333     0.375000000
     0.125000000     0.583333333     0.458333333
     0.125000000     0.666666667     0.291666667
     0.083333333     0.666666667     0.833333333
     0.125000000     0.750000000     0.208333333
     0.125000000     0.958333333     0.000000000
     0.083333333     0.916666667     0.250000000
     0.166666667     0.208333333     0.208333333
     0.166666667     0.250000000     0.083333333
     0.208333333     0.375000000     0.000000000
     0.166666667     0.375000000     0.125000000
     0.166666667     0.416666667     0.083333333
     0.166666667     0.416666667     0.166666667
     0.166666667     0.500000000     0.000000000
     0.166666667     0.625000000     0.541666667
     0.208333333     0.583333333     0.625000000
     0.166666667     0.708333333     0.041666667
     0.166666667     0.750000000     0.333333333
     0.166666667     0.791666667     0.791666667
     0.208333333     0.750000000     0.791666667
     0.291666667     0.041666667     0.500000000
     0.250000000     0.083333333     0.166666667
     0.250000000     0.208333333     0.458333333
     0.250000000     0.166666667     0.583333333
     0.291666667     0.208333333     0.833333333
     0.250000000     0.375000000     0.791666667
     0.250000000     0.583333333     0.166666667
     0.250000000     0.666666667     0.583333333
     0.250000000     0.750000000     0.416666667
     0.291666667     0.833333333     0.541666667
     0.250000000     0.833333333     0.833333333
     0.291666667     0.958333333     0.750000000
     0.375000000     0.041666667     0.583333333
     0.375000000     0.000000000     0.875000000
     0.333333333     0.083333333     0.500000000
     0.375000000     0.125000000     0.666666667
     0.375000000     0.375000000     0.083333333
     0.333333333     0.458333333     0.208333333
     0.375000000     0.500000000     0.625000000
     0.375000000     0.541666667     0.666666667
     0.375000000     0.583333333     0.291666667
     0.375000000     0.750000000     0.875000000
     0.333333333     0.750000000     0.916666667
     0.375000000     0.833333333     0.791666667
     0.333333333     0.916666667     0.166666667
     0.458333333     0.000000000     0.041666667
     0.458333333     0.000000000     0.375000000
     0.416666667     0.083333333     0.250000000
     0.416666667     0.125000000     0.375000000
     0.416666667     0.208333333     0.708333333
     0.458333333     0.333333333     0.291666667
     0.416666667     0.416666667     0.416666667
     0.416666667     0.500000000     0.666666667
     0.458333333     0.500000000     0.875000000
     0.458333333     0.666666667     0.708333333
     0.458333333     0.666666667     0.875000000
     0.416666667     0.875000000     0.375000000
     0.458333333     0.958333333     0.500000000
     0.541666667     0.208333333     0.083333333
     0.541666667     0.458333333     0.000000000
     0.541666667     0.416666667     0.375000000
     0.541666667     0.541666667     0.416666667
     0.541666667     0.583333333     0.375000000
     0.541666667     0.625000000     0.750000000
     0.541666667     0.666666667     0.041666667
     0.500000000     0.958333333     0.708333333
     0.583333333     0.125000000     0.791666667
     0.583333333     0.083333333     0.916666667
     0.583333333     0.250000000     0.166666667
     0.583333333     0.250000000     0.500000000
     0.625000000     0.458333333     0.750000000
     0.583333333     0.541666667     0.375000000
     0.625000000     0.583333333     0.041666667
     0.625000000     0.583333333     0.125000000
     0.625000000     0.583333333     0.958333333
     0.583333333     0.708333333     0.625000000
     0.583333333     0.791666667     0.291666667
     0.583333333     0.833333333     0.666666667
     0.583333333     0.916666667     0.583333333
     0.625000000     0.958333333     0.750000000
     0.708333333     0.125000000     0.416666667
     0.708333333     0.250000000     0.291666667
     0.708333333     0.333333333     0.375000000
     0.708333333     0.375000000     0.333333333
     0.708333333     0.333333333     0.625000000
     0.708333333     0.416666667     0.208333333
     0.666666667     0.416666667     0.250000000
     0.666666667     0.500000000     0.666666667
     0.708333333     0.583333333     0.125000000
     0.708333333     0.666666667     0.041666667
     0.666666667     0.708333333     0.541666667
     0.708333333     0.875000000     0.166666667
     0.708333333     0.916666667     0.541666667
     0.708333333     0.958333333     0.500000000
     0.666666667     0.958333333     0.958333333
     0.791666667     0.000000000     0.041666667
     0.791666667     0.125000000     0.583333333
     0.791666667     0.208333333     0.166666667
     0.791666667     0.291666667     0.833333333
     0.750000000     0.458333333     0.041666667
     0.791666667     0.458333333     0.750000000
     0.750000000     0.625000000     0.375000000
     0.750000000     0.666666667     0.416666667
     0.750000000     0.958333333     0.375000000
     0.875000000     0.083333333     0.125000000
     0.833333333     0.125000000     0.791666667
     0.875000000     0.208333333     0.166666667
     0.833333333     0.291666667     0.791666667
     0.833333333     0.666666667     0.750000000
     0.875000000     0.916666667     0.458333333
     0.875000000     0.958333333     0.583333333
     0.875000000     0.916666667     0.875000000
     0.958333333     0.083333333     0.458333333
     0.916666667     0.291666667     0.041666667
     0.916666667     0.250000000     0.750000000
     0.958333333     0.333333333     0.625000000
     0.958333333     0.625000000     0.583333333
     0.958333333     0.666666667     0.125000000
     0.916666667     0.791666667     0.208333333
     0.916666667     0.791666667     0.875000000
     0.958333333     0.875000000     0.500000000
     0.916666667     0.916666667     0.000000000
     0.916666667     0.916666667     0.916666667
     0.000000000     0.041666667     0.208333333
     0.000000000     0.041666667     0.375000000
     0.041666667     0.041666667     0.750000000
     0.000000000     0.125000000     0.041666667
     0.000000000     0.125000000     0.291666667
     0.000000000     0.166666667     0.166666667
     0.041666667     0.208333333     0.166666667
     0.000000000     0.208333333     0.291666667
     0.000000000     0.166666667     0.416666667
     0.000000000     0.166666667     0.916666667
     0.000000000     0.291666667     0.041666667
     0.000000000     0.291666667     0.291666667
     0.041666667     0.250000000     0.958333333
     0.000000000     0.375000000     0.708333333
     0.041666667     0.375000000     0.916666667
     0.041666667     0.416666667     0.208333333
     0.041666667     0.458333333     0.250000000
     0.041666667     0.416666667     0.541666667
     0.041666667     0.458333333     0.583333333
     0.000000000     0.541666667     0.875000000
     0.000000000     0.625000000     0.125000000
     0.000000000     0.625000000     0.208333333
     0.000000000     0.583333333     0.333333333
     0.000000000     0.625000000     0.375000000
     0.041666667     0.625000000     0.583333333
     0.000000000     0.708333333     0.708333333
     0.041666667     0.791666667     0.000000000
     0.000000000     0.791666667     0.125000000
     0.041666667     0.791666667     0.083333333
     0.041666667     0.750000000     0.208333333
     0.041666667     0.791666667     0.250000000
     0.000000000     0.750000000     0.333333333
     0.000000000     0.791666667     0.541666667
     0.000000000     0.750000000     0.666666667
     0.000000000     0.875000000     0.041666667
     0.041666667     0.833333333     0.041666667
     0.000000000     0.833333333     0.083333333
     0.000000000     0.875000000     0.208333333
     0.000000000     0.833333333     0.416666667
     0.000000000     0.875000000     0.708333333
     0.041666667     0.833333333     0.791666667
     0.000000000     0.916666667     0.166666667
     0.000000000     0.958333333     0.208333333
     0.041666667     0.916666667     0.208333333
     0.041666667     0.916666667     0.375000000
     0.000000000     0.958333333     0.541666667
     0.041666667     0.958333333     0.666666667
     0.000000000     0.916666667     0.750000000
     0.083333333     0.000000000     0.166666667
     0.125000000     0.041666667     0.166666667
     0.083333333     0.041666667     0.375000000
     0.083333333     0.000000000     0.750000000
     0.125000000     0.000000000     0.958333333
     0.125000000     0.041666667     0.916666667
     0.125000000     0.083333333     0.208333333
     0.083333333     0.125000000     0.291666667
     0.125000000     0.125000000     0.333333333
     0.125000000     0.125000000     0.500000000
     0.083333333     0.083333333     0.666666667
     0.125000000     0.125000000     0.750000000
     0.083333333     0.166666667     0.083333333
     0.125000000     0.166666667     0.291666667
     0.125000000     0.166666667     0.875000000
     0.083333333     0.208333333     0.958333333
     0.125000000     0.250000000     0.125000000
     0.083333333     0.291666667     0.375000000
     0.083333333     0.250000000     0.666666667
     0.125000000     0.291666667     0.833333333
     0.083333333     0.333333333     0.000000000
     0.083333333     0.375000000     0.041666667
     0.125000000     0.333333333     0.125000000
     0.083333333     0.333333333     0.166666667
     0.083333333     0.375000000     0.208333333
     0.125000000     0.333333333     0.541666667
     0.125000000     0.375000000     0.666666667
     0.125000000     0.375000000     0.916666667
     0.125000000     0.458333333     0.000000000
     0.125000000     0.458333333     0.250000000
     0.125000000     0.458333333     0.333333333
     0.083333333     0.458333333     0.625000000
     0.125000000     0.416666667     0.708333333
     0.125000000     0.458333333     0.750000000
     0.083333333     0.416666667     0.833333333
     0.125000000     0.541666667     0.083333333
     0.083333333     0.500000000     0.583333333
     0.083333333     0.541666667     0.875000000
     0.125000000     0.541666667     0.833333333
     0.125000000     0.500000000     0.958333333
     0.125000000     0.625000000     0.666666667
     0.083333333     0.666666667     0.000000000
     0.125000000     0.666666667     0.041666667
     0.083333333     0.708333333     0.958333333
     0.083333333     0.750000000     0.000000000
     0.083333333     0.750000000     0.166666667
     0.083333333     0.833333333     0.000000000
     0.083333333     0.875000000     0.125000000
     0.125000000     0.833333333     0.125000000
     0.125000000     0.958333333     0.083333333
     0.083333333     0.958333333     0.291666667
     0.125000000     0.916666667     0.458333333
     0.125000000     0.958333333     0.583333333
     0.125000000     0.958333333     0.666666667
     0.083333333     0.916666667     0.833333333
     0.166666667     0.041666667     0.291666667
     0.208333333     0.000000000     0.375000000
     0.208333333     0.041666667     0.416666667
     0.208333333     0.041666667     0.666666667
     0.166666667     0.000000000     0.750000000
     0.166666667     0.125000000     0.041666667
     0.208333333     0.125000000     0.000000000
     0.208333333     0.083333333     0.458333333
     0.166666667     0.083333333     0.583333333
     0.208333333     0.125000000     0.583333333
     0.166666667     0.083333333     0.833333333
     0.166666667     0.125000000     0.958333333
     0.166666667     0.166666667     0.750000000
     0.208333333     0.250000000     0.125000000
     0.166666667     0.291666667     0.291666667
     0.208333333     0.250000000     0.875000000
     0.208333333     0.291666667     0.916666667
     0.166666667     0.375000000     0.208333333
     0.166666667     0.375000000     0.291666667
     0.208333333     0.375000000     0.333333333
     0.166666667     0.333333333     0.416666667
     0.208333333     0.375000000     0.666666667
     0.166666667     0.375000000     0.791666667
     0.208333333     0.375000000     0.833333333
     0.166666667     0.458333333     0.541666667
     0.166666667     0.416666667     0.583333333
     0.166666667     0.416666667     0.666666667
     0.166666667     0.541666667     0.208333333
     0.166666667     0.541666667     0.541666667
     0.166666667     0.500000000     0.833333333
     0.166666667     0.583333333     0.166666667
     0.166666667     0.625000000     0.625000000
     0.166666667     0.666666667     0.250000000
     0.166666667     0.708333333     0.625000000
     0.166666667     0.791666667     0.625000000
     0.208333333     0.750000000     0.708333333
     0.166666667     0.833333333     0.166666667
     0.166666667     0.875000000     0.208333333
     0.166666667     0.833333333     0.250000000
     0.208333333     0.875000000     0.333333333
     0.208333333     0.875000000     0.666666667
     0.208333333     0.916666667     0.041666667
     0.208333333     0.916666667     0.375000000
     0.208333333     0.958333333     0.333333333
     0.166666667     0.916666667     0.833333333
     0.291666667     0.000000000     0.458333333
     0.250000000     0.000000000     0.500000000
     0.291666667     0.000000000     0.791666667
     0.291666667     0.000000000     0.875000000
     0.291666667     0.041666667     0.916666667
     0.291666667     0.083333333     0.125000000
     0.250000000     0.125000000     0.208333333
     0.291666667     0.083333333     0.375000000
     0.291666667     0.125000000     0.333333333
     0.250000000     0.166666667     0.083333333
     0.291666667     0.166666667     0.375000000
     0.250000000     0.208333333     0.625000000
     0.250000000     0.291666667     0.291666667
     0.291666667     0.291666667     0.416666667
     0.291666667     0.291666667     0.500000000
     0.250000000     0.250000000     0.583333333
     0.250000000     0.291666667     0.875000000
     0.250000000     0.333333333     0.000000000
     0.291666667     0.333333333     0.375000000
     0.291666667     0.333333333     0.875000000
     0.250000000     0.416666667     0.250000000
     0.250000000     0.416666667     0.333333333
     0.250000000     0.458333333     0.458333333
     0.250000000     0.416666667     0.583333333
     0.250000000     0.541666667     0.041666667
     0.250000000     0.541666667     0.125000000
     0.291666667     0.541666667     0.083333333
     0.250000000     0.541666667     0.291666667
     0.291666667     0.541666667     0.500000000
     0.250000000     0.625000000     0.041666667
     0.250000000     0.583333333     0.083333333
     0.291666667     0.583333333     0.208333333
     0.250000000     0.625000000     0.458333333
     0.250000000     0.583333333     0.583333333
     0.291666667     0.625000000     0.750000000
     0.250000000     0.666666667     0.166666667
     0.250000000     0.708333333     0.458333333
     0.250000000     0.708333333     0.541666667
     0.291666667     0.666666667     0.625000000
     0.291666667     0.666666667     0.875000000
     0.291666667     0.791666667     0.166666667
     0.291666667     0.750000000     0.291666667
     0.291666667     0.750000000     0.625000000
     0.250000000     0.875000000     0.125000000
     0.291666667     0.833333333     0.125000000
     0.250000000     0.833333333     0.250000000
     0.291666667     0.833333333     0.291666667
     0.250000000     0.875000000     0.541666667
     0.291666667     0.916666667     0.208333333
     0.291666667     0.916666667     0.375000000
     0.250000000     0.916666667     0.750000000
     0.250000000     0.916666667     0.833333333
     0.291666667     0.916666667     0.875000000
     0.291666667     0.958333333     0.916666667
     0.375000000     0.041666667     0.333333333
     0.333333333     0.041666667     0.958333333
     0.375000000     0.083333333     0.375000000
     0.375000000     0.125000000     0.500000000
     0.375000000     0.125000000     0.583333333
     0.333333333     0.125000000     0.791666667
     0.333333333     0.083333333     0.833333333
     0.333333333     0.083333333     0.916666667
     0.333333333     0.166666667     0.083333333
     0.375000000     0.166666667     0.291666667
     0.333333333     0.166666667     0.416666667
     0.333333333     0.208333333     0.458333333
     0.375000000     0.208333333     0.833333333
     0.333333333     0.250000000     0.166666667
     0.375000000     0.291666667     0.500000000
     0.375000000     0.291666667     0.583333333
     0.333333333     0.250000000     0.916666667
     0.333333333     0.333333333     0.333333333
     0.333333333     0.458333333     0.125000000
     0.375000000     0.458333333     0.416666667
     0.333333333     0.541666667     0.125000000
     0.375000000     0.500000000     0.125000000
     0.333333333     0.541666667     0.791666667
     0.375000000     0.541666667     0.750000000
     0.375000000     0.583333333     0.125000000
     0.375000000     0.625000000     0.083333333
     0.333333333     0.583333333     0.333333333
     0.333333333     0.625000000     0.791666667
     0.333333333     0.625000000     0.875000000
     0.333333333     0.708333333     0.041666667
     0.333333333     0.666666667     0.083333333
     0.333333333     0.666666667     0.583333333
     0.375000000     0.666666667     0.625000000
     0.333333333     0.708333333     0.708333333
     0.375000000     0.666666667     0.791666667
     0.375000000     0.666666667     0.958333333
     0.333333333     0.791666667     0.125000000
     0.333333333     0.750000000     0.250000000
     0.375000000     0.791666667     0.666666667
     0.333333333     0.833333333     0.166666667
     0.375000000     0.875000000     0.333333333
     0.375000000     0.833333333     0.708333333
     0.375000000     0.833333333     0.958333333
     0.375000000     0.916666667     0.708333333
     0.416666667     0.000000000     0.166666667
     0.458333333     0.041666667     0.250000000
     0.416666667     0.000000000     0.333333333
     0.416666667     0.041666667     0.458333333
     0.458333333     0.083333333     0.041666667
     0.416666667     0.083333333     0.083333333
     0.458333333     0.083333333     0.125000000
     0.458333333     0.125000000     0.333333333
     0.458333333     0.208333333     0.166666667
     0.458333333     0.166666667     0.291666667
     0.416666667     0.166666667     0.416666667
     0.458333333     0.208333333     0.416666667
     0.458333333     0.166666667     0.708333333
     0.416666667     0.166666667     0.750000000
     0.458333333     0.208333333     0.833333333
     0.416666667     0.291666667     0.375000000
     0.458333333     0.250000000     0.375000000
     0.458333333     0.291666667     0.333333333
     0.458333333     0.250000000     0.541666667
     0.416666667     0.291666667     0.791666667
     0.458333333     0.333333333     0.041666667
     0.458333333     0.375000000     0.416666667
     0.416666667     0.500000000     0.166666667
     0.416666667     0.541666667     0.375000000
     0.458333333     0.500000000     0.375000000
     0.458333333     0.541666667     0.666666667
     0.416666667     0.541666667     0.875000000
     0.458333333     0.541666667     0.916666667
     0.416666667     0.583333333     0.583333333
     0.458333333     0.583333333     0.708333333
     0.416666667     0.583333333     0.750000000
     0.458333333     0.583333333     0.791666667
     0.458333333     0.625000000     0.750000000
     0.458333333     0.666666667     0.291666667
     0.458333333     0.708333333     0.500000000
     0.416666667     0.708333333     0.875000000
     0.458333333     0.791666667     0.416666667
     0.458333333     0.750000000     0.625000000
     0.416666667     0.833333333     0.333333333
     0.458333333     0.833333333     0.541666667
     0.458333333     0.875000000     0.500000000
     0.416666667     0.916666667     0.750000000
     0.416666667     0.958333333     0.791666667
     0.500000000     0.041666667     0.458333333
     0.500000000     0.041666667     0.541666667
     0.541666667     0.000000000     0.541666667
     0.541666667     0.000000000     0.958333333
     0.541666667     0.083333333     0.875000000
     0.500000000     0.083333333     0.916666667
     0.541666667     0.208333333     0.250000000
     0.541666667     0.166666667     0.541666667
     0.541666667     0.166666667     0.958333333
     0.541666667     0.250000000     0.041666667
     0.541666667     0.250000000     0.208333333
     0.541666667     0.291666667     0.500000000
     0.500000000     0.291666667     0.791666667
     0.541666667     0.291666667     0.750000000
     0.541666667     0.250000000     0.875000000
     0.500000000     0.291666667     0.958333333
     0.541666667     0.291666667     0.916666667
     0.541666667     0.333333333     0.125000000
     0.541666667     0.375000000     0.333333333
     0.500000000     0.333333333     0.416666667
     0.500000000     0.375000000     0.708333333
     0.541666667     0.375000000     0.666666667
     0.500000000     0.458333333     0.041666667
     0.541666667     0.416666667     0.291666667
     0.500000000     0.458333333     0.625000000
     0.541666667     0.458333333     0.666666667
     0.541666667     0.416666667     0.875000000
     0.500000000     0.541666667     0.125000000
     0.541666667     0.541666667     0.166666667
     0.541666667     0.500000000     0.375000000
     0.541666667     0.500000000     0.541666667
     0.541666667     0.541666667     0.750000000
     0.500000000     0.541666667     0.958333333
     0.500000000     0.625000000     0.125000000
     0.541666667     0.625000000     0.083333333
     0.541666667     0.625000000     0.416666667
     0.500000000     0.625000000     0.875000000
     0.541666667     0.625000000     0.916666667
     0.500000000     0.666666667     0.083333333
     0.541666667     0.708333333     0.083333333
     0.500000000     0.666666667     0.250000000
     0.500000000     0.708333333     0.291666667
     0.500000000     0.666666667     0.416666667
     0.541666667     0.708333333     0.833333333
     0.541666667     0.791666667     0.250000000
     0.541666667     0.750000000     0.541666667
     0.500000000     0.791666667     0.625000000
     0.500000000     0.875000000     0.041666667
     0.500000000     0.875000000     0.208333333
     0.541666667     0.833333333     0.458333333
     0.500000000     0.875000000     0.541666667
     0.500000000     0.833333333     0.583333333
     0.500000000     0.916666667     0.000000000
     0.541666667     0.958333333     0.000000000
     0.500000000     0.916666667     0.666666667
     0.541666667     0.958333333     0.750000000
     0.583333333     0.000000000     0.083333333
     0.583333333     0.041666667     0.541666667
     0.583333333     0.041666667     0.625000000
     0.583333333     0.000000000     0.666666667
     0.625000000     0.041666667     0.666666667
     0.625000000     0.041666667     0.833333333
     0.625000000     0.125000000     0.166666667
     0.625000000     0.125000000     0.250000000
     0.583333333     0.083333333     0.750000000
     0.625000000     0.083333333     0.875000000
     0.625000000     0.208333333     0.416666667
     0.625000000     0.166666667     0.875000000
     0.625000000     0.291666667     0.500000000
     0.625000000     0.291666667     0.916666667
     0.583333333     0.375000000     0.041666667
     0.583333333     0.333333333     0.166666667
     0.583333333     0.375000000     0.208333333
     0.583333333     0.333333333     0.250000000
     0.583333333     0.333333333     0.333333333
     0.583333333     0.333333333     0.500000000
     0.583333333     0.375000000     0.541666667
     0.625000000     0.375000000     0.750000000
     0.625000000     0.416666667     0.041666667
     0.625000000     0.458333333     0.166666667
     0.583333333     0.416666667     0.333333333
     0.583333333     0.458333333     0.458333333
     0.625000000     0.458333333     0.583333333
     0.625000000     0.416666667     0.791666667
     0.625000000     0.416666667     0.875000000
     0.625000000     0.416666667     0.958333333
     0.583333333     0.500000000     0.083333333
     0.583333333     0.500000000     0.833333333
     0.583333333     0.583333333     0.166666667
     0.625000000     0.625000000     0.166666667
     0.625000000     0.583333333     0.458333333
     0.625000000     0.625000000     0.583333333
     0.625000000     0.708333333     0.083333333
     0.625000000     0.708333333     0.250000000
     0.583333333     0.666666667     0.333333333
     0.625000000     0.708333333     0.750000000
     0.583333333     0.750000000     0.166666667
     0.625000000     0.791666667     0.166666667
     0.625000000     0.750000000     0.291666667
     0.583333333     0.791666667     0.458333333
     0.583333333     0.750000000     0.500000000
     0.583333333     0.750000000     0.666666667
     0.583333333     0.791666667     0.708333333
     0.625000000     0.791666667     0.750000000
     0.583333333     0.750000000     0.916666667
     0.583333333     0.875000000     0.375000000
     0.625000000     0.875000000     0.416666667
     0.625000000     0.916666667     0.125000000
     0.625000000     0.916666667     0.208333333
     0.583333333     0.958333333     0.875000000
     0.625000000     0.916666667     0.875000000
     0.583333333     0.916666667     0.916666667
     0.708333333     0.000000000     0.041666667
     0.708333333     0.041666667     0.083333333
     0.666666667     0.041666667     0.708333333
     0.666666667     0.041666667     0.791666667
     0.708333333     0.041666667     0.833333333
     0.666666667     0.083333333     0.000000000
     0.666666667     0.125000000     0.041666667
     0.708333333     0.083333333     0.375000000
     0.708333333     0.083333333     0.458333333
     0.666666667     0.125000000     0.541666667
     0.666666667     0.125000000     0.708333333
     0.708333333     0.083333333     0.708333333
     0.708333333     0.125000000     0.916666667
     0.666666667     0.208333333     0.208333333
     0.708333333     0.166666667     0.375000000
     0.708333333     0.208333333     0.500000000
     0.666666667     0.208333333     0.791666667
     0.666666667     0.250000000     0.000000000
     0.666666667     0.250000000     0.083333333
     0.708333333     0.291666667     0.333333333
     0.666666667     0.291666667     0.875000000
     0.666666667     0.291666667     0.958333333
     0.666666667     0.333333333     0.166666667
     0.708333333     0.333333333     0.291666667
     0.708333333     0.375000000     0.416666667
     0.666666667     0.333333333     0.583333333
     0.666666667     0.416666667     0.333333333
     0.708333333     0.458333333     0.416666667
     0.666666667     0.416666667     0.750000000
     0.666666667     0.416666667     0.833333333
     0.708333333     0.500000000     0.208333333
     0.708333333     0.541666667     0.333333333
     0.708333333     0.541666667     0.666666667
     0.708333333     0.625000000     0.083333333
     0.666666667     0.583333333     0.250000000
     0.666666667     0.625000000     0.541666667
     0.666666667     0.666666667     0.083333333
     0.666666667     0.666666667     0.166666667
     0.666666667     0.708333333     0.458333333
     0.666666667     0.666666667     0.666666667
     0.708333333     0.708333333     0.750000000
     0.666666667     0.666666667     0.916666667
     0.708333333     0.791666667     0.250000000
     0.666666667     0.750000000     0.666666667
     0.666666667     0.750000000     0.750000000
     0.708333333     0.833333333     0.125000000
     0.666666667     0.875000000     0.375000000
     0.708333333     0.875000000     0.416666667
     0.666666667     0.875000000     0.541666667
     0.708333333     0.875000000     0.583333333
     0.666666667     0.833333333     0.750000000
     0.708333333     0.958333333     0.333333333
     0.666666667     0.916666667     0.833333333
     0.666666667     0.916666667     0.916666667
     0.750000000     0.041666667     0.291666667
     0.750000000     0.125000000     0.541666667
     0.750000000     0.083333333     0.833333333
     0.791666667     0.208333333     0.000000000
     0.791666667     0.166666667     0.791666667
     0.750000000     0.291666667     0.125000000
     0.791666667     0.250000000     0.208333333
     0.750000000     0.291666667     0.291666667
     0.750000000     0.250000000     0.500000000
     0.750000000     0.291666667     0.958333333
     0.791666667     0.333333333     0.041666667
     0.750000000     0.333333333     0.250000000
     0.791666667     0.333333333     0.458333333
     0.750000000     0.416666667     0.083333333
     0.750000000     0.416666667     0.166666667
     0.791666667     0.541666667     0.000000000
     0.750000000     0.500000000     0.583333333
     0.750000000     0.583333333     0.500000000
     0.750000000     0.708333333     0.125000000
     0.791666667     0.666666667     0.125000000
     0.750000000     0.708333333     0.208333333
     0.750000000     0.666666667     0.750000000
     0.791666667     0.708333333     0.916666667
     0.750000000     0.791666667     0.125000000
     0.791666667     0.750000000     0.125000000
     0.750000000     0.791666667     0.541666667
     0.791666667     0.833333333     0.208333333
     0.791666667     0.875000000     0.166666667
     0.791666667     0.833333333     0.458333333
     0.750000000     0.833333333     0.916666667
     0.791666667     0.916666667     0.125000000
     0.750000000     0.958333333     0.291666667
     0.833333333     0.000000000     0.250000000
     0.833333333     0.000000000     0.333333333
     0.875000000     0.000000000     0.541666667
     0.875000000     0.000000000     0.875000000
     0.833333333     0.125000000     0.291666667
     0.833333333     0.125000000     0.541666667
     0.875000000     0.125000000     0.500000000
     0.875000000     0.125000000     0.666666667
     0.875000000     0.125000000     0.750000000
     0.833333333     0.208333333     0.041666667
     0.875000000     0.166666667     0.291666667
     0.833333333     0.166666667     0.666666667
     0.833333333     0.291666667     0.041666667
     0.875000000     0.291666667     0.500000000
     0.875000000     0.291666667     0.583333333
     0.833333333     0.333333333     0.250000000
     0.833333333     0.375000000     0.458333333
     0.833333333     0.333333333     0.666666667
     0.875000000     0.333333333     0.708333333
     0.875000000     0.333333333     0.791666667
     0.833333333     0.416666667     0.333333333
     0.833333333     0.458333333     0.708333333
     0.875000000     0.458333333     0.666666667
     0.875000000     0.541666667     0.083333333
     0.875000000     0.541666667     0.333333333
     0.875000000     0.541666667     0.416666667
     0.833333333     0.500000000     0.583333333
     0.875000000     0.500000000     0.791666667
     0.833333333     0.625000000     0.708333333
     0.875000000     0.625000000     0.916666667
     0.875000000     0.708333333     0.000000000
     0.833333333     0.708333333     0.291666667
     0.875000000     0.708333333     0.333333333
     0.833333333     0.666666667     0.416666667
     0.875000000     0.708333333     0.416666667
     0.875000000     0.666666667     0.541666667
     0.875000000     0.708333333     0.500000000
     0.833333333     0.708333333     0.708333333
     0.833333333     0.750000000     0.000000000
     0.833333333     0.750000000     0.083333333
     0.875000000     0.750000000     0.208333333
     0.875000000     0.833333333     0.041666667
     0.833333333     0.875000000     0.291666667
     0.875000000     0.875000000     0.916666667
     0.833333333     0.916666667     0.083333333
     0.875000000     0.958333333     0.083333333
     0.875000000     0.916666667     0.291666667
     0.875000000     0.958333333     0.250000000
     0.833333333     0.916666667     0.916666667
     0.958333333     0.041666667     0.500000000
     0.958333333     0.000000000     0.625000000
     0.958333333     0.125000000     0.083333333
     0.916666667     0.125000000     0.291666667
     0.958333333     0.083333333     0.291666667
     0.916666667     0.125000000     0.875000000
     0.916666667     0.083333333     0.916666667
     0.916666667     0.166666667     0.083333333
     0.916666667     0.208333333     0.458333333
     0.916666667     0.208333333     0.791666667
     0.958333333     0.166666667     0.958333333
     0.958333333     0.250000000     0.041666667
     0.916666667     0.291666667     0.458333333
     0.958333333     0.250000000     0.625000000
     0.958333333     0.250000000     0.875000000
     0.958333333     0.291666667     0.833333333
     0.916666667     0.333333333     0.166666667
     0.916666667     0.375000000     0.208333333
     0.916666667     0.375000000     0.541666667
     0.958333333     0.375000000     0.916666667
     0.916666667     0.416666667     0.583333333
     0.958333333     0.458333333     0.916666667
     0.958333333     0.541666667     0.333333333
     0.916666667     0.541666667     0.958333333
     0.916666667     0.583333333     0.000000000
     0.916666667     0.625000000     0.208333333
     0.958333333     0.583333333     0.208333333
     0.958333333     0.583333333     0.291666667
     0.916666667     0.625000000     0.541666667
     0.916666667     0.625000000     0.625000000
     0.958333333     0.583333333     0.875000000
     0.958333333     0.666666667     0.041666667
     0.916666667     0.666666667     0.250000000
     0.958333333     0.708333333     0.333333333
     0.958333333     0.791666667     0.333333333
     0.916666667     0.791666667     0.541666667
     0.916666667     0.750000000     0.666666667
     0.916666667     0.833333333     0.083333333
     0.916666667     0.833333333     0.166666667
     0.916666667     0.875000000     0.208333333
     0.958333333     0.833333333     0.708333333
     0.916666667     0.958333333     0.125000000
     0.958333333     0.916666667     0.125000000
     0.958333333     0.958333333     0.250000000
     0.916666667     0.958333333     0.958333333
     0.041666667     0.083333333     0.291666667
     0.000000000     0.125000000     0.875000000
     0.000000000     0.166666667     0.333333333
     0.000000000     0.166666667     0.833333333
     0.000000000     0.208333333     0.875000000
     0.041666667     0.333333333     0.291666667
     0.041666667     0.416666667     0.291666667
     0.000000000     0.416666667     0.333333333
     0.041666667     0.458333333     0.416666667
     0.000000000     0.458333333     0.958333333
     0.041666667     0.541666667     0.333333333
     0.041666667     0.541666667     0.583333333
     0.000000000     0.625000000     0.041666667
     0.041666667     0.625000000     0.000000000
     0.041666667     0.583333333     0.291666667
     0.000000000     0.583333333     0.916666667
     0.000000000     0.666666667     0.083333333
     0.041666667     0.666666667     0.208333333
     0.041666667     0.666666667     0.541666667
     0.041666667     0.750000000     0.375000000
     0.000000000     0.750000000     0.833333333
     0.000000000     0.958333333     0.458333333
     0.041666667     0.958333333     0.583333333
     0.041666667     0.916666667     0.958333333
     0.083333333     0.000000000     0.416666667
     0.083333333     0.208333333     0.375000000
     0.083333333     0.166666667     0.416666667
     0.125000000     0.166666667     0.708333333
     0.125000000     0.291666667     0.000000000
     0.083333333     0.291666667     0.208333333
     0.083333333     0.291666667     0.291666667
     0.125000000     0.375000000     0.000000000
     0.125000000     0.375000000     0.583333333
     0.083333333     0.500000000     0.500000000
     0.083333333     0.625000000     0.208333333
     0.083333333     0.666666667     0.250000000
     0.083333333     0.666666667     0.333333333
     0.083333333     0.791666667     0.458333333
     0.083333333     0.791666667     0.625000000
     0.125000000     0.791666667     0.833333333
     0.125000000     0.750000000     0.958333333
     0.125000000     0.875000000     0.166666667
     0.083333333     0.833333333     0.250000000
     0.125000000     0.875000000     0.250000000
     0.083333333     0.875000000     0.625000000
     0.125000000     0.833333333     0.875000000
     0.208333333     0.125000000     0.166666667
     0.208333333     0.125000000     0.416666667
     0.208333333     0.083333333     0.708333333
     0.166666667     0.166666667     0.083333333
     0.208333333     0.291666667     0.500000000
     0.166666667     0.333333333     0.000000000
     0.208333333     0.333333333     0.708333333
     0.208333333     0.375000000     0.916666667
     0.208333333     0.458333333     0.000000000
     0.208333333     0.541666667     0.416666667
     0.166666667     0.541666667     0.708333333
     0.208333333     0.541666667     0.666666667
     0.208333333     0.583333333     0.375000000
     0.208333333     0.583333333     0.541666667
     0.208333333     0.791666667     0.083333333
     0.166666667     0.750000000     0.666666667
     0.208333333     0.958333333     0.166666667
     0.250000000     0.000000000     0.250000000
     0.291666667     0.041666667     0.833333333
     0.291666667     0.125000000     0.250000000
     0.291666667     0.083333333     0.541666667
     0.291666667     0.125000000     0.916666667
     0.291666667     0.208333333     0.000000000
     0.250000000     0.166666667     0.500000000
     0.291666667     0.250000000     0.208333333
     0.250000000     0.458333333     0.208333333
     0.291666667     0.416666667     0.625000000
     0.291666667     0.500000000     0.458333333
     0.250000000     0.666666667     0.416666667
     0.250000000     0.666666667     0.750000000
     0.250000000     0.750000000     0.333333333
     0.291666667     0.875000000     0.333333333
     0.291666667     0.833333333     0.458333333
     0.250000000     0.875000000     0.708333333
     0.291666667     0.916666667     0.041666667
     0.291666667     0.916666667     0.458333333
     0.291666667     0.916666667     0.625000000
     0.250000000     0.916666667     0.916666667
     0.333333333     0.041666667     0.291666667
     0.375000000     0.208333333     0.500000000
     0.375000000     0.250000000     0.208333333
     0.333333333     0.291666667     0.791666667
     0.375000000     0.250000000     0.958333333
     0.333333333     0.458333333     0.375000000
     0.375000000     0.458333333     0.666666667
     0.375000000     0.458333333     0.750000000
     0.333333333     0.458333333     0.958333333
     0.375000000     0.500000000     0.041666667
     0.333333333     0.541666667     0.291666667
     0.333333333     0.500000000     0.500000000
     0.375000000     0.500000000     0.958333333
     0.375000000     0.750000000     0.375000000
     0.333333333     0.750000000     0.583333333
     0.375000000     0.791666667     0.583333333
     0.375000000     0.750000000     0.958333333
     0.375000000     0.875000000     0.000000000
     0.375000000     0.875000000     0.500000000
     0.375000000     0.875000000     0.666666667
     0.375000000     0.875000000     0.833333333
     0.375000000     0.958333333     0.083333333
     0.416666667     0.041666667     0.291666667
     0.416666667     0.000000000     0.750000000
     0.458333333     0.125000000     0.083333333
     0.416666667     0.125000000     0.291666667
     0.416666667     0.083333333     0.833333333
     0.416666667     0.208333333     0.541666667
     0.458333333     0.208333333     0.500000000
     0.416666667     0.375000000     0.375000000
     0.458333333     0.375000000     0.500000000
     0.416666667     0.333333333     0.833333333
     0.458333333     0.333333333     0.875000000
     0.458333333     0.458333333     0.250000000
     0.416666667     0.458333333     0.791666667
     0.458333333     0.500000000     0.958333333
     0.416666667     0.625000000     0.041666667
     0.416666667     0.583333333     0.083333333
     0.458333333     0.583333333     0.208333333
     0.416666667     0.625000000     0.875000000
     0.458333333     0.625000000     0.833333333
     0.416666667     0.625000000     0.958333333
     0.458333333     0.583333333     0.958333333
     0.416666667     0.708333333     0.125000000
     0.458333333     0.666666667     0.208333333
     0.416666667     0.666666667     0.500000000
     0.416666667     0.708333333     0.541666667
     0.416666667     0.666666667     0.916666667
     0.458333333     0.791666667     0.166666667
     0.416666667     0.750000000     0.833333333
     0.416666667     0.833333333     0.250000000
     0.416666667     0.833333333     0.666666667
     0.458333333     0.875000000     0.750000000
     0.500000000     0.041666667     0.208333333
     0.500000000     0.083333333     0.500000000
     0.541666667     0.375000000     0.083333333
     0.541666667     0.333333333     0.541666667
     0.500000000     0.333333333     0.916666667
     0.500000000     0.416666667     0.666666667
     0.541666667     0.458333333     0.833333333
     0.500000000     0.500000000     0.416666667
     0.500000000     0.625000000     0.791666667
     0.500000000     0.666666667     0.000000000
     0.541666667     0.708333333     0.250000000
     0.500000000     0.750000000     0.583333333
     0.500000000     0.750000000     0.833333333
     0.541666667     0.833333333     0.375000000
     0.541666667     0.875000000     0.583333333
     0.583333333     0.125000000     0.875000000
     0.583333333     0.208333333     0.541666667
     0.625000000     0.208333333     0.666666667
     0.625000000     0.250000000     0.541666667
     0.583333333     0.250000000     0.666666667
     0.583333333     0.375000000     0.291666667
     0.625000000     0.333333333     0.375000000
     0.625000000     0.375000000     0.500000000
     0.583333333     0.458333333     0.791666667
     0.625000000     0.500000000     0.291666667
     0.583333333     0.500000000     0.500000000
     0.583333333     0.500000000     0.583333333
     0.583333333     0.541666667     0.875000000
     0.625000000     0.708333333     0.500000000
     0.625000000     0.791666667     0.333333333
     0.625000000     0.875000000     0.250000000
     0.583333333     0.833333333     0.416666667
     0.583333333     0.958333333     0.041666667
     0.583333333     0.916666667     0.166666667
     0.666666667     0.000000000     0.416666667
     0.708333333     0.000000000     0.708333333
     0.708333333     0.125000000     0.166666667
     0.666666667     0.083333333     0.666666667
     0.708333333     0.083333333     0.791666667
     0.666666667     0.125000000     0.875000000
     0.708333333     0.333333333     0.458333333
     0.666666667     0.458333333     0.541666667
     0.666666667     0.458333333     0.791666667
     0.708333333     0.541666667     0.500000000
     0.708333333     0.541666667     0.583333333
     0.708333333     0.500000000     0.958333333
     0.666666667     0.583333333     0.500000000
     0.708333333     0.625000000     0.666666667
     0.666666667     0.708333333     0.291666667
     0.708333333     0.708333333     0.333333333
     0.666666667     0.750000000     0.500000000
     0.666666667     0.833333333     0.833333333
     0.708333333     0.916666667     0.041666667
     0.666666667     0.958333333     0.375000000
     0.791666667     0.041666667     0.916666667
     0.791666667     0.125000000     0.250000000
     0.750000000     0.083333333     0.583333333
     0.791666667     0.166666667     0.291666667
     0.750000000     0.208333333     0.458333333
     0.750000000     0.208333333     0.541666667
     0.750000000     0.375000000     0.708333333
     0.791666667     0.333333333     0.958333333
     0.750000000     0.416666667     0.583333333
     0.750000000     0.500000000     0.166666667
     0.791666667     0.541666667     0.416666667
     0.791666667     0.500000000     0.875000000
     0.750000000     0.625000000     0.291666667
     0.791666667     0.583333333     0.791666667
     0.791666667     0.750000000     0.625000000
     0.791666667     0.833333333     0.541666667
     0.791666667     0.875000000     0.500000000
     0.791666667     0.958333333     0.000000000
     0.750000000     0.916666667     0.666666667
     0.875000000     0.041666667     0.750000000
     0.875000000     0.041666667     0.833333333
     0.875000000     0.125000000     0.000000000
     0.875000000     0.125000000     0.916666667
     0.875000000     0.208333333     0.416666667
     0.875000000     0.291666667     0.166666667
     0.833333333     0.291666667     0.625000000
     0.833333333     0.291666667     0.708333333
     0.833333333     0.458333333     0.291666667
     0.875000000     0.500000000     0.708333333
     0.833333333     0.500000000     0.833333333
     0.875000000     0.625000000     0.250000000
     0.875000000     0.583333333     0.625000000
     0.875000000     0.708333333     0.166666667
     0.833333333     0.708333333     0.958333333
     0.833333333     0.750000000     0.166666667
     0.875000000     0.791666667     0.500000000
     0.833333333     0.791666667     0.791666667
     0.833333333     0.833333333     0.000000000
     0.833333333     0.833333333     0.083333333
     0.833333333     0.875000000     0.208333333
     0.875000000     0.833333333     0.708333333
     0.875000000     0.916666667     0.125000000
     0.833333333     0.958333333     0.208333333
     0.916666667     0.208333333     0.708333333
     0.916666667     0.208333333     0.875000000
     0.916666667     0.208333333     0.958333333
     0.958333333     0.250000000     0.291666667
     0.958333333     0.375000000     0.416666667
     0.958333333     0.416666667     0.708333333
     0.958333333     0.541666667     0.000000000
     0.916666667     0.500000000     0.333333333
     0.958333333     0.541666667     0.666666667
     0.958333333     0.708333333     0.250000000
     0.958333333     0.750000000     0.291666667
     0.958333333     0.791666667     0.833333333
     0.958333333     0.750000000     0.958333333
     0.958333333     0.958333333     0.500000000
     0.958333333     0.916666667     0.791666667
     0.041666667     0.000000000     0.375000000
     0.000000000     0.000000000     0.583333333
     0.000000000     0.041666667     0.875000000
     0.000000000     0.041666667     0.958333333
     0.041666667     0.125000000     0.000000000
     0.000000000     0.083333333     0.083333333
     0.000000000     0.125000000     0.125000000
     0.000000000     0.125000000     0.625000000
     0.041666667     0.083333333     0.625000000
     0.041666667     0.125000000     0.750000000
     0.000000000     0.125000000     0.958333333
     0.000000000     0.166666667     0.083333333
     0.041666667     0.208333333     0.333333333
     0.000000000     0.208333333     0.958333333
     0.041666667     0.250000000     0.041666667
     0.041666667     0.291666667     0.083333333
     0.041666667     0.291666667     0.166666667
     0.041666667     0.250000000     0.458333333
     0.041666667     0.291666667     0.500000000
     0.000000000     0.375000000     0.041666667
     0.041666667     0.375000000     0.083333333
     0.041666667     0.375000000     0.166666667
     0.000000000     0.375000000     0.291666667
     0.000000000     0.416666667     0.083333333
     0.000000000     0.416666667     0.166666667
     0.041666667     0.458333333     0.166666667
     0.041666667     0.416666667     0.375000000
     0.000000000     0.416666667     0.583333333
     0.000000000     0.458333333     0.625000000
     0.041666667     0.500000000     0.125000000
     0.000000000     0.541666667     0.541666667
     0.000000000     0.541666667     0.791666667
     0.041666667     0.541666667     0.750000000
     0.000000000     0.541666667     0.958333333
     0.041666667     0.583333333     0.708333333
     0.000000000     0.625000000     0.875000000
     0.041666667     0.625000000     0.916666667
     0.041666667     0.666666667     0.041666667
     0.000000000     0.708333333     0.208333333
     0.041666667     0.708333333     0.333333333
     0.000000000     0.666666667     0.416666667
     0.041666667     0.708333333     0.416666667
     0.000000000     0.666666667     0.583333333
     0.000000000     0.666666667     0.666666667
     0.041666667     0.708333333     0.833333333
     0.000000000     0.666666667     0.916666667
     0.000000000     0.750000000     0.166666667
     0.000000000     0.750000000     0.583333333
     0.041666667     0.833333333     0.291666667
     0.000000000     0.833333333     0.500000000
     0.041666667     0.875000000     0.833333333
     0.041666667     0.958333333     0.000000000
     0.041666667     0.916666667     0.125000000
     0.041666667     0.916666667     0.458333333
     0.041666667     0.958333333     0.833333333
     0.000000000     0.958333333     0.958333333
     0.083333333     0.000000000     0.083333333
     0.125000000     0.041666667     0.083333333
     0.125000000     0.041666667     0.416666667
     0.083333333     0.041666667     0.541666667
     0.125000000     0.041666667     0.750000000
     0.125000000     0.041666667     0.833333333
     0.125000000     0.083333333     0.125000000
     0.083333333     0.083333333     0.166666667
     0.125000000     0.125000000     0.250000000
     0.083333333     0.125000000     0.541666667
     0.083333333     0.166666667     0.000000000
     0.125000000     0.208333333     0.250000000
     0.125000000     0.208333333     0.416666667
     0.125000000     0.208333333     0.500000000
     0.083333333     0.166666667     0.666666667
     0.083333333     0.208333333     0.875000000
     0.083333333     0.166666667     0.916666667
     0.125000000     0.291666667     0.083333333
     0.125000000     0.250000000     0.375000000
     0.083333333     0.375000000     0.375000000
     0.083333333     0.333333333     0.666666667
     0.083333333     0.375000000     0.708333333
     0.125000000     0.458333333     0.166666667
     0.083333333     0.416666667     0.500000000
     0.083333333     0.458333333     0.958333333
     0.125000000     0.416666667     0.958333333
     0.083333333     0.541666667     0.208333333
     0.125000000     0.500000000     0.375000000
     0.083333333     0.500000000     0.833333333
     0.083333333     0.583333333     0.333333333
     0.125000000     0.625000000     0.416666667
     0.083333333     0.625000000     0.541666667
     0.125000000     0.625000000     0.500000000
     0.125000000     0.583333333     0.708333333
     0.083333333     0.583333333     0.750000000
     0.083333333     0.583333333     0.833333333
     0.083333333     0.583333333     0.916666667
     0.125000000     0.625000000     0.916666667
     0.125000000     0.666666667     0.125000000
     0.083333333     0.666666667     0.166666667
     0.125000000     0.666666667     0.375000000
     0.125000000     0.666666667     0.458333333
     0.125000000     0.708333333     0.416666667
     0.125000000     0.708333333     0.666666667
     0.083333333     0.708333333     0.791666667
     0.125000000     0.708333333     0.750000000
     0.125000000     0.666666667     0.958333333
     0.083333333     0.791666667     0.541666667
     0.083333333     0.750000000     0.833333333
     0.083333333     0.791666667     0.875000000
     0.125000000     0.875000000     0.000000000
     0.125000000     0.833333333     0.208333333
     0.125000000     0.833333333     0.458333333
     0.125000000     0.875000000     0.500000000
     0.125000000     0.916666667     0.125000000
     0.125000000     0.958333333     0.166666667
     0.125000000     0.958333333     0.416666667
     0.125000000     0.916666667     0.791666667
     0.083333333     0.916666667     0.916666667
     0.166666667     0.041666667     0.041666667
     0.208333333     0.000000000     0.125000000
     0.208333333     0.041666667     0.583333333
     0.208333333     0.125000000     0.083333333
     0.166666667     0.083333333     0.166666667
     0.166666667     0.083333333     0.333333333
     0.166666667     0.125000000     0.375000000
     0.166666667     0.125000000     0.875000000
     0.166666667     0.083333333     0.916666667
     0.208333333     0.125000000     0.916666667
     0.208333333     0.166666667     0.125000000
     0.208333333     0.208333333     0.083333333
     0.166666667     0.166666667     0.333333333
     0.208333333     0.208333333     0.333333333
     0.208333333     0.166666667     0.875000000
     0.166666667     0.291666667     0.208333333
     0.208333333     0.250000000     0.208333333
     0.208333333     0.291666667     0.750000000
     0.208333333     0.333333333     0.125000000
     0.166666667     0.333333333     0.250000000
     0.208333333     0.375000000     0.250000000
     0.166666667     0.375000000     0.541666667
     0.166666667     0.458333333     0.041666667
     0.208333333     0.458333333     0.166666667
     0.208333333     0.416666667     0.291666667
     0.208333333     0.416666667     0.458333333
     0.208333333     0.416666667     0.541666667
     0.208333333     0.416666667     0.875000000
     0.208333333     0.416666667     0.958333333
     0.166666667     0.500000000     0.250000000
     0.208333333     0.541666667     0.333333333
     0.208333333     0.500000000     0.541666667
     0.208333333     0.500000000     0.958333333
     0.208333333     0.625000000     0.083333333
     0.166666667     0.625000000     0.875000000
     0.208333333     0.625000000     0.916666667
     0.208333333     0.708333333     0.000000000
     0.166666667     0.708333333     0.125000000
     0.208333333     0.708333333     0.416666667
     0.208333333     0.708333333     0.750000000
     0.166666667     0.708333333     0.875000000
     0.208333333     0.666666667     0.958333333
     0.166666667     0.791666667     0.125000000
     0.208333333     0.750000000     0.291666667
     0.166666667     0.791666667     0.375000000
     0.208333333     0.791666667     0.416666667
     0.208333333     0.750000000     0.625000000
     0.166666667     0.750000000     0.750000000
     0.208333333     0.750000000     0.875000000
     0.208333333     0.750000000     0.958333333
     0.166666667     0.875000000     0.458333333
     0.208333333     0.833333333     0.708333333
     0.166666667     0.916666667     0.166666667
     0.208333333     0.958333333     0.250000000
     0.166666667     0.916666667     0.500000000
     0.166666667     0.958333333     0.541666667
     0.208333333     0.916666667     0.541666667
     0.208333333     0.916666667     0.791666667
     0.166666667     0.958333333     0.958333333
     0.250000000     0.041666667     0.041666667
     0.250000000     0.000000000     0.083333333
     0.291666667     0.041666667     0.083333333
     0.291666667     0.041666667     0.166666667
     0.250000000     0.000000000     0.333333333
     0.291666667     0.000000000     0.625000000
     0.291666667     0.041666667     0.666666667
     0.291666667     0.125000000     0.000000000
     0.291666667     0.125000000     0.166666667
     0.250000000     0.125000000     0.458333333
     0.291666667     0.125000000     0.833333333
     0.250000000     0.125000000     0.958333333
     0.250000000     0.166666667     0.000000000
     0.291666667     0.166666667     0.291666667
     0.291666667     0.208333333     0.250000000
     0.291666667     0.166666667     0.458333333
     0.250000000     0.166666667     0.666666667
     0.291666667     0.250000000     0.125000000
     0.250000000     0.250000000     0.166666667
     0.291666667     0.250000000     0.291666667
     0.291666667     0.291666667     0.250000000
     0.291666667     0.250000000     0.625000000
     0.291666667     0.250000000     0.875000000
     0.250000000     0.250000000     0.916666667
     0.250000000     0.333333333     0.083333333
     0.250000000     0.375000000     0.291666667
     0.250000000     0.375000000     0.625000000
     0.291666667     0.333333333     0.791666667
     0.250000000     0.375000000     0.958333333
     0.250000000     0.416666667     0.083333333
     0.291666667     0.416666667     0.125000000
     0.250000000     0.458333333     0.625000000
     0.250000000     0.416666667     0.666666667
     0.250000000     0.458333333     0.708333333
     0.250000000     0.458333333     0.875000000
     0.250000000     0.500000000     0.000000000
     0.291666667     0.500000000     0.291666667
     0.291666667     0.500000000     0.375000000
     0.250000000     0.541666667     0.458333333
     0.291666667     0.583333333     0.375000000
     0.291666667     0.583333333     0.458333333
     0.291666667     0.583333333     0.541666667
     0.291666667     0.625000000     0.500000000
     0.250000000     0.625000000     0.625000000
     0.291666667     0.583333333     0.625000000
     0.291666667     0.666666667     0.125000000
     0.291666667     0.708333333     0.083333333
     0.250000000     0.708333333     0.291666667
     0.250000000     0.708333333     0.875000000
     0.250000000     0.791666667     0.375000000
     0.291666667     0.750000000     0.458333333
     0.291666667     0.875000000     0.250000000
     0.291666667     0.833333333     0.375000000
     0.250000000     0.875000000     0.458333333
     0.250000000     0.833333333     0.666666667
     0.250000000     0.833333333     0.750000000
     0.250000000     0.875000000     0.958333333
     0.291666667     0.958333333     0.500000000
     0.333333333     0.041666667     0.375000000
     0.333333333     0.125000000     0.041666667
     0.375000000     0.083333333     0.291666667
     0.333333333     0.125000000     0.625000000
     0.333333333     0.083333333     0.666666667
     0.375000000     0.083333333     0.708333333
     0.375000000     0.125000000     0.833333333
     0.333333333     0.208333333     0.208333333
     0.333333333     0.250000000     0.083333333
     0.375000000     0.375000000     0.000000000
     0.375000000     0.333333333     0.125000000
     0.375000000     0.375000000     0.583333333
     0.375000000     0.375000000     0.666666667
     0.333333333     0.416666667     0.416666667
     0.375000000     0.458333333     0.583333333
     0.375000000     0.458333333     0.833333333
     0.333333333     0.541666667     0.041666667
     0.375000000     0.541666667     0.166666667
     0.375000000     0.541666667     0.250000000
     0.333333333     0.500000000     0.583333333
     0.375000000     0.541666667     0.583333333
     0.333333333     0.500000000     0.916666667
     0.375000000     0.541666667     0.916666667
     0.375000000     0.583333333     0.041666667
     0.375000000     0.625000000     0.166666667
     0.333333333     0.583333333     0.250000000
     0.333333333     0.583333333     0.416666667
     0.375000000     0.625000000     0.416666667
     0.333333333     0.583333333     0.583333333
     0.333333333     0.583333333     0.666666667
     0.375000000     0.583333333     0.875000000
     0.375000000     0.666666667     0.125000000
     0.333333333     0.666666667     0.416666667
     0.375000000     0.708333333     0.500000000
     0.375000000     0.708333333     0.666666667
     0.333333333     0.708333333     0.791666667
     0.375000000     0.708333333     0.833333333
     0.333333333     0.708333333     0.958333333
     0.333333333     0.750000000     0.166666667
     0.333333333     0.791666667     0.208333333
     0.333333333     0.791666667     0.291666667
     0.375000000     0.791666667     0.333333333
     0.333333333     0.750000000     0.500000000
     0.333333333     0.750000000     0.666666667
     0.375000000     0.833333333     0.041666667
     0.333333333     0.833333333     0.250000000
     0.333333333     0.875000000     0.291666667
     0.375000000     0.833333333     0.291666667
     0.333333333     0.875000000     0.625000000
     0.333333333     0.833333333     0.666666667
     0.375000000     0.875000000     0.750000000
     0.375000000     0.958333333     0.250000000
     0.333333333     0.916666667     0.333333333
     0.333333333     0.916666667     0.416666667
     0.333333333     0.958333333     0.541666667
     0.333333333     0.916666667     0.583333333
     0.458333333     0.041666667     0.166666667
     0.416666667     0.000000000     0.416666667
     0.458333333     0.000000000     0.458333333
     0.458333333     0.041666667     0.583333333
     0.458333333     0.041666667     0.916666667
     0.458333333     0.083333333     0.375000000
     0.416666667     0.083333333     0.500000000
     0.416666667     0.125000000     0.541666667
     0.458333333     0.166666667     0.041666667
     0.416666667     0.208333333     0.125000000
     0.416666667     0.166666667     0.250000000
     0.416666667     0.208333333     0.291666667
     0.458333333     0.166666667     0.625000000
     0.458333333     0.291666667     0.000000000
     0.458333333     0.250000000     0.708333333
     0.416666667     0.291666667     0.875000000
     0.416666667     0.375000000     0.125000000
     0.458333333     0.333333333     0.125000000
     0.458333333     0.333333333     0.208333333
     0.416666667     0.333333333     0.666666667
     0.458333333     0.458333333     0.166666667
     0.416666667     0.458333333     0.291666667
     0.416666667     0.416666667     0.333333333
     0.416666667     0.458333333     0.375000000
     0.416666667     0.458333333     0.625000000
     0.458333333     0.458333333     0.666666667
     0.458333333     0.416666667     0.958333333
     0.416666667     0.541666667     0.125000000
     0.458333333     0.500000000     0.125000000
     0.416666667     0.500000000     0.500000000
     0.458333333     0.541666667     0.583333333
     0.458333333     0.541666667     0.750000000
     0.458333333     0.583333333     0.041666667
     0.458333333     0.625000000     0.333333333
     0.416666667     0.625000000     0.791666667
     0.458333333     0.583333333     0.875000000
     0.416666667     0.666666667     0.833333333
     0.458333333     0.708333333     0.916666667
     0.458333333     0.750000000     0.125000000
     0.416666667     0.750000000     0.250000000
     0.416666667     0.791666667     0.291666667
     0.416666667     0.791666667     0.541666667
     0.458333333     0.791666667     0.500000000
     0.416666667     0.750000000     0.583333333
     0.416666667     0.750000000     0.750000000
     0.416666667     0.750000000     0.916666667
     0.458333333     0.833333333     0.375000000
     0.458333333     0.958333333     0.416666667
     0.500000000     0.041666667     0.041666667
     0.541666667     0.041666667     0.083333333
     0.500000000     0.041666667     0.625000000
     0.500000000     0.000000000     0.666666667
     0.500000000     0.041666667     0.708333333
     0.500000000     0.041666667     0.791666667
     0.500000000     0.083333333     0.416666667
     0.500000000     0.083333333     0.583333333
     0.500000000     0.125000000     0.625000000
     0.541666667     0.166666667     0.125000000
     0.500000000     0.166666667     0.250000000
     0.541666667     0.166666667     0.375000000
     0.541666667     0.208333333     0.583333333
     0.500000000     0.291666667     0.291666667
     0.541666667     0.250000000     0.458333333
     0.541666667     0.291666667     0.583333333
     0.500000000     0.250000000     0.750000000
     0.541666667     0.250000000     0.791666667
     0.500000000     0.375000000     0.208333333
     0.541666667     0.375000000     0.166666667
     0.541666667     0.375000000     0.250000000
     0.541666667     0.375000000     0.750000000
     0.500000000     0.333333333     0.833333333
     0.541666667     0.416666667     0.041666667
     0.500000000     0.416666667     0.583333333
     0.541666667     0.416666667     0.708333333
     0.500000000     0.541666667     0.208333333
     0.500000000     0.500000000     0.666666667
     0.500000000     0.500000000     0.916666667
     0.541666667     0.541666667     0.916666667
     0.541666667     0.583333333     0.125000000
     0.500000000     0.625000000     0.291666667
     0.500000000     0.583333333     0.333333333
     0.541666667     0.583333333     0.625000000
     0.500000000     0.583333333     0.916666667
     0.500000000     0.708333333     0.375000000
     0.541666667     0.666666667     0.625000000
     0.541666667     0.666666667     0.708333333
     0.500000000     0.666666667     0.750000000
     0.500000000     0.750000000     0.666666667
     0.500000000     0.791666667     0.708333333
     0.541666667     0.791666667     0.750000000
     0.500000000     0.750000000     0.916666667
     0.500000000     0.833333333     0.083333333
     0.541666667     0.875000000     0.250000000
     0.500000000     0.833333333     0.333333333
     0.541666667     0.875000000     0.416666667
     0.541666667     0.875000000     0.500000000
     0.541666667     0.916666667     0.041666667
     0.500000000     0.958333333     0.208333333
     0.541666667     0.916666667     0.458333333
     0.541666667     0.916666667     0.541666667
     0.583333333     0.000000000     0.000000000
     0.583333333     0.041666667     0.458333333
     0.583333333     0.041666667     0.791666667
     0.625000000     0.041666667     0.750000000
     0.625000000     0.000000000     0.875000000
     0.583333333     0.125000000     0.375000000
     0.583333333     0.083333333     0.416666667
     0.583333333     0.125000000     0.625000000
     0.625000000     0.125000000     0.583333333
     0.583333333     0.125000000     0.708333333
     0.583333333     0.166666667     0.250000000
     0.583333333     0.166666667     0.583333333
     0.583333333     0.208333333     0.958333333
     0.625000000     0.250000000     0.208333333
     0.583333333     0.291666667     0.291666667
     0.583333333     0.291666667     0.375000000
     0.625000000     0.250000000     0.375000000
     0.625000000     0.250000000     0.458333333
     0.583333333     0.250000000     0.750000000
     0.583333333     0.291666667     0.791666667
     0.583333333     0.416666667     0.000000000
     0.583333333     0.458333333     0.208333333
     0.625000000     0.416666667     0.375000000
     0.583333333     0.458333333     0.708333333
     0.583333333     0.458333333     0.875000000
     0.625000000     0.458333333     0.833333333
     0.583333333     0.500000000     0.000000000
     0.625000000     0.500000000     0.208333333
     0.625000000     0.500000000     0.375000000
     0.625000000     0.500000000     0.458333333
     0.625000000     0.500000000     0.625000000
     0.625000000     0.500000000     0.708333333
     0.583333333     0.541666667     0.791666667
     0.583333333     0.500000000     0.916666667
     0.625000000     0.625000000     0.000000000
     0.625000000     0.625000000     0.333333333
     0.583333333     0.625000000     0.541666667
     0.625000000     0.625000000     0.666666667
     0.625000000     0.666666667     0.041666667
     0.625000000     0.666666667     0.208333333
     0.583333333     0.666666667     0.583333333
     0.583333333     0.708333333     0.875000000
     0.583333333     0.750000000     0.000000000
     0.625000000     0.750000000     0.541666667
     0.583333333     0.875000000     0.541666667
     0.583333333     0.875000000     0.708333333
     0.625000000     0.833333333     0.708333333
     0.625000000     0.916666667     0.458333333
     0.583333333     0.916666667     0.750000000
     0.583333333     0.916666667     0.833333333
     0.708333333     0.000000000     0.291666667
     0.708333333     0.083333333     0.041666667
     0.666666667     0.125000000     0.125000000
     0.666666667     0.125000000     0.208333333
     0.666666667     0.125000000     0.375000000
     0.708333333     0.083333333     0.625000000
     0.666666667     0.083333333     0.916666667
     0.666666667     0.166666667     0.000000000
     0.666666667     0.166666667     0.166666667
     0.708333333     0.208333333     0.250000000
     0.708333333     0.208333333     0.333333333
     0.666666667     0.208333333     0.625000000
     0.666666667     0.208333333     0.958333333
     0.708333333     0.208333333     0.916666667
     0.666666667     0.291666667     0.125000000
     0.666666667     0.250000000     0.333333333
     0.708333333     0.250000000     0.541666667
     0.708333333     0.250000000     0.708333333
     0.708333333     0.291666667     0.750000000
     0.666666667     0.333333333     0.000000000
     0.666666667     0.375000000     0.041666667
     0.708333333     0.375000000     0.000000000
     0.708333333     0.333333333     0.208333333
     0.666666667     0.375000000     0.458333333
     0.666666667     0.375000000     0.791666667
     0.708333333     0.333333333     0.958333333
     0.666666667     0.458333333     0.375000000
     0.708333333     0.416666667     0.458333333
     0.666666667     0.416666667     0.583333333
     0.666666667     0.416666667     0.666666667
     0.666666667     0.458333333     0.958333333
     0.666666667     0.500000000     0.000000000
     0.666666667     0.500000000     0.166666667
     0.666666667     0.500000000     0.250000000
     0.666666667     0.541666667     0.375000000
     0.666666667     0.541666667     0.458333333
     0.666666667     0.541666667     0.958333333
     0.666666667     0.583333333     0.083333333
     0.708333333     0.625000000     0.166666667
     0.666666667     0.625000000     0.458333333
     0.708333333     0.583333333     0.541666667
     0.666666667     0.625000000     0.625000000
     0.708333333     0.583333333     0.625000000
     0.708333333     0.583333333     0.791666667
     0.666666667     0.625000000     0.875000000
     0.666666667     0.625000000     0.958333333
     0.708333333     0.708333333     0.000000000
     0.708333333     0.666666667     0.375000000
     0.666666667     0.708333333     0.708333333
     0.708333333     0.666666667     0.958333333
     0.708333333     0.750000000     0.041666667
     0.666666667     0.750000000     0.083333333
     0.708333333     0.750000000     0.208333333
     0.666666667     0.750000000     0.250000000
     0.666666667     0.791666667     0.375000000
     0.666666667     0.791666667     0.541666667
     0.708333333     0.750000000     0.875000000
     0.666666667     0.875000000     0.041666667
     0.708333333     0.875000000     0.083333333
     0.708333333     0.833333333     0.458333333
     0.708333333     0.833333333     0.541666667
     0.666666667     0.875000000     0.625000000
     0.666666667     0.958333333     0.541666667
     0.708333333     0.958333333     0.583333333
     0.708333333     0.916666667     0.958333333
     0.750000000     0.041666667     0.458333333
     0.791666667     0.041666667     0.500000000
     0.750000000     0.000000000     0.583333333
     0.791666667     0.000000000     0.791666667
     0.750000000     0.041666667     0.958333333
     0.750000000     0.083333333     0.083333333
     0.750000000     0.125000000     0.458333333
     0.750000000     0.125000000     0.791666667
     0.750000000     0.125000000     0.958333333
     0.750000000     0.166666667     0.166666667
     0.791666667     0.166666667     0.541666667
     0.791666667     0.208333333     0.500000000
     0.791666667     0.208333333     0.583333333
     0.750000000     0.166666667     0.666666667
     0.750000000     0.166666667     0.750000000
     0.750000000     0.208333333     0.958333333
     0.750000000     0.250000000     0.250000000
     0.750000000     0.250000000     0.416666667
     0.750000000     0.291666667     0.541666667
     0.791666667     0.250000000     0.708333333
     0.791666667     0.250000000     0.875000000
     0.750000000     0.333333333     0.000000000
     0.791666667     0.375000000     0.000000000
     0.750000000     0.333333333     0.333333333
     0.791666667     0.333333333     0.375000000
     0.791666667     0.375000000     0.333333333
     0.791666667     0.333333333     0.791666667
     0.750000000     0.458333333     0.125000000
     0.791666667     0.416666667     0.291666667
     0.750000000     0.458333333     0.375000000
     0.750000000     0.458333333     0.541666667
     0.791666667     0.458333333     0.500000000
     0.750000000     0.458333333     0.958333333
     0.750000000     0.500000000     0.250000000
     0.750000000     0.500000000     0.333333333
     0.791666667     0.541666667     0.333333333
     0.750000000     0.541666667     0.958333333
     0.750000000     0.625000000     0.208333333
     0.750000000     0.625000000     0.541666667
     0.750000000     0.625000000     0.625000000
     0.791666667     0.625000000     0.833333333
     0.750000000     0.666666667     0.250000000
     0.791666667     0.708333333     0.583333333
     0.750000000     0.666666667     0.666666667
     0.750000000     0.708333333     0.791666667
     0.791666667     0.708333333     0.750000000
     0.750000000     0.666666667     0.833333333
     0.791666667     0.708333333     0.833333333
     0.791666667     0.791666667     0.416666667
     0.791666667     0.750000000     0.791666667
     0.791666667     0.791666667     0.916666667
     0.791666667     0.833333333     0.291666667
     0.750000000     0.833333333     0.500000000
     0.750000000     0.833333333     0.583333333
     0.791666667     0.833333333     0.791666667
     0.791666667     0.875000000     0.833333333
     0.791666667     0.958333333     0.083333333
     0.750000000     0.916666667     0.166666667
     0.791666667     0.916666667     0.208333333
     0.791666667     0.958333333     0.250000000
     0.791666667     0.958333333     0.333333333
     0.791666667     0.916666667     0.791666667
     0.791666667     0.916666667     0.958333333
     0.833333333     0.000000000     0.166666667
     0.833333333     0.041666667     0.291666667
     0.875000000     0.000000000     0.291666667
     0.875000000     0.041666667     0.333333333
     0.875000000     0.041666667     0.583333333
     0.833333333     0.000000000     0.750000000
     0.875000000     0.041666667     0.916666667
     0.833333333     0.083333333     0.083333333
     0.833333333     0.125000000     0.375000000
     0.875000000     0.083333333     0.708333333
     0.875000000     0.083333333     0.875000000
     0.833333333     0.166666667     0.083333333
     0.875000000     0.166666667     0.125000000
     0.833333333     0.166666667     0.416666667
     0.875000000     0.208333333     0.500000000
     0.833333333     0.208333333     0.875000000
     0.875000000     0.291666667     0.000000000
     0.875000000     0.250000000     0.125000000
     0.875000000     0.250000000     0.375000000
     0.833333333     0.250000000     0.583333333
     0.833333333     0.291666667     0.875000000
     0.875000000     0.291666667     0.916666667
     0.833333333     0.333333333     0.000000000
     0.875000000     0.333333333     0.208333333
     0.875000000     0.375000000     0.333333333
     0.875000000     0.333333333     0.625000000
     0.875000000     0.375000000     0.750000000
     0.833333333     0.416666667     0.416666667
     0.833333333     0.416666667     0.583333333
     0.875000000     0.541666667     0.000000000
     0.833333333     0.541666667     0.375000000
     0.833333333     0.541666667     0.958333333
     0.875000000     0.583333333     0.125000000
     0.875000000     0.625000000     0.083333333
     0.875000000     0.583333333     0.541666667
     0.833333333     0.583333333     0.583333333
     0.833333333     0.583333333     0.666666667
     0.875000000     0.625000000     0.750000000
     0.833333333     0.583333333     0.833333333
     0.875000000     0.583333333     0.875000000
     0.875000000     0.666666667     0.041666667
     0.833333333     0.666666667     0.166666667
     0.833333333     0.708333333     0.625000000
     0.875000000     0.708333333     0.583333333
     0.875000000     0.708333333     0.666666667
     0.875000000     0.708333333     0.833333333
     0.833333333     0.750000000     0.500000000
     0.833333333     0.750000000     0.583333333
     0.833333333     0.791666667     0.708333333
     0.833333333     0.750000000     0.750000000
     0.875000000     0.791666667     0.833333333
     0.875000000     0.833333333     0.375000000
     0.833333333     0.833333333     0.583333333
     0.875000000     0.875000000     0.583333333
     0.875000000     0.833333333     0.875000000
     0.875000000     0.916666667     0.041666667
     0.833333333     0.916666667     0.250000000
     0.833333333     0.916666667     0.333333333
     0.875000000     0.916666667     0.375000000
     0.875000000     0.958333333     0.333333333
     0.833333333     0.958333333     0.625000000
     0.833333333     0.958333333     0.708333333
     0.875000000     0.958333333     0.666666667
     0.833333333     0.916666667     0.750000000
     0.875000000     0.958333333     0.750000000
     0.833333333     0.958333333     0.875000000
     0.958333333     0.000000000     0.208333333
     0.958333333     0.041666667     0.166666667
     0.958333333     0.041666667     0.250000000
     0.916666667     0.000000000     0.333333333
     0.958333333     0.000000000     0.458333333
     0.916666667     0.083333333     0.000000000
     0.916666667     0.125000000     0.458333333
     0.916666667     0.125000000     0.791666667
     0.916666667     0.166666667     0.000000000
     0.916666667     0.208333333     0.041666667
     0.916666667     0.208333333     0.125000000
     0.916666667     0.208333333     0.541666667
     0.958333333     0.166666667     0.625000000
     0.958333333     0.208333333     0.833333333
     0.958333333     0.208333333     0.916666667
     0.916666667     0.250000000     0.083333333
     0.958333333     0.250000000     0.125000000
     0.916666667     0.291666667     0.208333333
     0.916666667     0.291666667     0.541666667
     0.916666667     0.291666667     0.958333333
     0.958333333     0.250000000     0.958333333
     0.958333333     0.333333333     0.041666667
     0.958333333     0.375000000     0.000000000
     0.958333333     0.375000000     0.250000000
     0.916666667     0.375000000     0.375000000
     0.916666667     0.375000000     0.458333333
     0.916666667     0.416666667     0.250000000
     0.958333333     0.416666667     0.458333333
     0.916666667     0.500000000     0.000000000
     0.958333333     0.500000000     0.125000000
     0.958333333     0.500000000     0.375000000
     0.958333333     0.500000000     0.458333333
     0.916666667     0.500000000     0.583333333
     0.916666667     0.500000000     0.666666667
     0.916666667     0.500000000     0.916666667
     0.958333333     0.583333333     0.125000000
     0.916666667     0.583333333     0.333333333
     0.916666667     0.583333333     0.416666667
     0.916666667     0.583333333     0.750000000
     0.958333333     0.583333333     0.791666667
     0.958333333     0.625000000     0.750000000
     0.958333333     0.583333333     0.958333333
     0.916666667     0.666666667     0.166666667
     0.958333333     0.708333333     0.166666667
     0.916666667     0.708333333     0.541666667
     0.916666667     0.708333333     0.875000000
     0.958333333     0.708333333     0.916666667
     0.916666667     0.750000000     0.250000000
     0.916666667     0.750000000     0.500000000
     0.958333333     0.791666667     0.583333333
     0.916666667     0.791666667     0.791666667
     0.916666667     0.833333333     0.333333333
     0.916666667     0.875000000     0.375000000
     0.916666667     0.833333333     0.750000000
     0.916666667     0.875000000     0.791666667
     0.916666667     0.833333333     0.833333333
     0.916666667     0.958333333     0.708333333
     0.958333333     0.916666667     0.708333333
     0.958333333     0.916666667     0.875000000
     0.000000000     0.000000000     0.000000000
     0.000000000     0.041666667     0.041666667
     0.041666667     0.000000000     0.041666667
     0.000000000     0.000000000     0.083333333
     0.000000000     0.041666667     0.125000000
     0.041666667     0.000000000     0.125000000
     0.041666667     0.041666667     0.083333333
     0.000000000     0.000000000     0.166666667
     0.041666667     0.000000000     0.208333333
     0.041666667     0.041666667     0.166666667
     0.000000000     0.000000000     0.250000000
     0.000000000     0.041666667     0.291666667
     0.041666667     0.000000000     0.291666667
     0.041666667     0.041666667     0.250000000
     0.000000000     0.000000000     0.333333333
     0.041666667     0.041666667     0.333333333
     0.000000000     0.000000000     0.416666667
     0.000000000     0.041666667     0.458333333
     0.041666667     0.000000000     0.458333333
     0.041666667     0.041666667     0.416666667
     0.000000000     0.000000000     0.500000000
     0.000000000     0.041666667     0.541666667
     0.041666667     0.000000000     0.541666667
     0.041666667     0.041666667     0.500000000
     0.041666667     0.000000000     0.625000000
     0.041666667     0.041666667     0.583333333
     0.000000000     0.000000000     0.666666667
     0.000000000     0.041666667     0.708333333
     0.041666667     0.000000000     0.708333333
     0.041666667     0.041666667     0.666666667
     0.000000000     0.000000000     0.750000000
     0.000000000     0.041666667     0.791666667
     0.041666667     0.000000000     0.791666667
     0.000000000     0.000000000     0.833333333
     0.041666667     0.000000000     0.875000000
     0.041666667     0.041666667     0.833333333
     0.041666667     0.000000000     0.958333333
     0.041666667     0.041666667     0.916666667
     0.041666667     0.083333333     0.041666667
     0.041666667     0.083333333     0.125000000
     0.041666667     0.125000000     0.083333333
     0.000000000     0.083333333     0.166666667
     0.000000000     0.125000000     0.208333333
     0.041666667     0.083333333     0.208333333
     0.041666667     0.125000000     0.166666667
     0.000000000     0.083333333     0.250000000
     0.041666667     0.125000000     0.250000000
     0.000000000     0.083333333     0.333333333
     0.000000000     0.125000000     0.375000000
     0.041666667     0.125000000     0.333333333
     0.000000000     0.083333333     0.416666667
     0.000000000     0.125000000     0.458333333
     0.041666667     0.083333333     0.458333333
     0.041666667     0.125000000     0.416666667
     0.000000000     0.083333333     0.500000000
     0.000000000     0.125000000     0.541666667
     0.041666667     0.083333333     0.541666667
     0.041666667     0.125000000     0.500000000
     0.000000000     0.083333333     0.583333333
     0.041666667     0.125000000     0.583333333
     0.000000000     0.083333333     0.666666667
     0.000000000     0.125000000     0.708333333
     0.041666667     0.083333333     0.708333333
     0.041666667     0.125000000     0.666666667
     0.000000000     0.083333333     0.750000000
     0.000000000     0.125000000     0.791666667
     0.041666667     0.083333333     0.791666667
     0.000000000     0.083333333     0.833333333
     0.041666667     0.083333333     0.875000000
     0.041666667     0.125000000     0.833333333
     0.000000000     0.083333333     0.916666667
     0.041666667     0.083333333     0.958333333
     0.041666667     0.125000000     0.916666667
     0.000000000     0.166666667     0.000000000
     0.000000000     0.208333333     0.041666667
     0.041666667     0.166666667     0.041666667
     0.000000000     0.208333333     0.125000000
     0.041666667     0.166666667     0.125000000
     0.041666667     0.208333333     0.083333333
     0.000000000     0.208333333     0.208333333
     0.041666667     0.166666667     0.208333333
     0.000000000     0.166666667     0.250000000
     0.041666667     0.166666667     0.291666667
     0.041666667     0.208333333     0.250000000
     0.000000000     0.208333333     0.375000000
     0.041666667     0.166666667     0.375000000
     0.000000000     0.208333333     0.458333333
     0.041666667     0.166666667     0.458333333
     0.000000000     0.166666667     0.500000000
     0.000000000     0.208333333     0.541666667
     0.041666667     0.166666667     0.541666667
     0.041666667     0.208333333     0.500000000
     0.000000000     0.166666667     0.583333333
     0.000000000     0.208333333     0.625000000
     0.041666667     0.166666667     0.625000000
     0.041666667     0.208333333     0.583333333
     0.000000000     0.166666667     0.666666667
     0.000000000     0.208333333     0.708333333
     0.041666667     0.166666667     0.708333333
     0.041666667     0.208333333     0.666666667
     0.000000000     0.166666667     0.750000000
     0.000000000     0.208333333     0.791666667
     0.041666667     0.166666667     0.791666667
     0.041666667     0.208333333     0.750000000
     0.041666667     0.166666667     0.875000000
     0.041666667     0.208333333     0.833333333
     0.041666667     0.166666667     0.958333333
     0.041666667     0.208333333     0.916666667
     0.000000000     0.250000000     0.000000000
     0.041666667     0.291666667     0.000000000
     0.000000000     0.291666667     0.125000000
     0.041666667     0.250000000     0.125000000
     0.000000000     0.250000000     0.166666667
     0.000000000     0.291666667     0.208333333
     0.041666667     0.250000000     0.208333333
     0.041666667     0.291666667     0.250000000
     0.000000000     0.250000000     0.333333333
     0.000000000     0.291666667     0.375000000
     0.041666667     0.250000000     0.375000000
     0.041666667     0.291666667     0.333333333
     0.000000000     0.250000000     0.416666667
     0.000000000     0.291666667     0.458333333
     0.041666667     0.291666667     0.416666667
     0.041666667     0.250000000     0.541666667
     0.000000000     0.250000000     0.583333333
     0.000000000     0.291666667     0.625000000
     0.041666667     0.291666667     0.583333333
     0.000000000     0.250000000     0.666666667
     0.000000000     0.291666667     0.708333333
     0.041666667     0.250000000     0.708333333
     0.041666667     0.291666667     0.666666667
     0.000000000     0.250000000     0.750000000
     0.000000000     0.291666667     0.791666667
     0.041666667     0.250000000     0.791666667
     0.041666667     0.291666667     0.750000000
     0.000000000     0.250000000     0.833333333
     0.000000000     0.291666667     0.875000000
     0.041666667     0.250000000     0.875000000
     0.041666667     0.291666667     0.833333333
     0.000000000     0.250000000     0.916666667
     0.000000000     0.291666667     0.958333333
     0.041666667     0.291666667     0.916666667
     0.000000000     0.333333333     0.000000000
     0.041666667     0.333333333     0.041666667
     0.041666667     0.375000000     0.000000000
     0.000000000     0.333333333     0.083333333
     0.041666667     0.333333333     0.125000000
     0.000000000     0.333333333     0.166666667
     0.000000000     0.375000000     0.208333333
     0.041666667     0.333333333     0.208333333
     0.000000000     0.333333333     0.250000000
     0.041666667     0.375000000     0.250000000
     0.000000000     0.333333333     0.333333333
     0.000000000     0.375000000     0.375000000
     0.041666667     0.333333333     0.375000000
     0.041666667     0.375000000     0.333333333
     0.000000000     0.333333333     0.416666667
     0.000000000     0.375000000     0.458333333
     0.041666667     0.333333333     0.458333333
     0.041666667     0.375000000     0.416666667
     0.000000000     0.333333333     0.500000000
     0.000000000     0.375000000     0.541666667
     0.041666667     0.333333333     0.541666667
     0.041666667     0.375000000     0.500000000
     0.000000000     0.333333333     0.583333333
     0.000000000     0.375000000     0.625000000
     0.041666667     0.333333333     0.625000000
     0.041666667     0.375000000     0.583333333
     0.000000000     0.333333333     0.666666667
     0.041666667     0.333333333     0.708333333
     0.041666667     0.375000000     0.666666667
     0.000000000     0.333333333     0.750000000
     0.000000000     0.375000000     0.791666667
     0.041666667     0.333333333     0.791666667
     0.041666667     0.375000000     0.750000000
     0.000000000     0.333333333     0.833333333
     0.000000000     0.375000000     0.875000000
     0.041666667     0.333333333     0.875000000
     0.041666667     0.375000000     0.833333333
     0.000000000     0.333333333     0.916666667
     0.000000000     0.375000000     0.958333333
     0.041666667     0.333333333     0.958333333
     0.000000000     0.416666667     0.000000000
     0.000000000     0.458333333     0.041666667
     0.041666667     0.416666667     0.041666667
     0.041666667     0.458333333     0.000000000
     0.000000000     0.458333333     0.125000000
     0.041666667     0.416666667     0.125000000
     0.041666667     0.458333333     0.083333333
     0.000000000     0.458333333     0.208333333
     0.000000000     0.416666667     0.250000000
     0.000000000     0.458333333     0.291666667
     0.000000000     0.458333333     0.375000000
     0.041666667     0.458333333     0.333333333
     0.000000000     0.416666667     0.416666667
     0.041666667     0.416666667     0.458333333
     0.000000000     0.416666667     0.500000000
     0.000000000     0.458333333     0.541666667
     0.041666667     0.458333333     0.500000000
     0.041666667     0.416666667     0.625000000
     0.000000000     0.416666667     0.666666667
     0.000000000     0.458333333     0.708333333
     0.041666667     0.416666667     0.708333333
     0.041666667     0.458333333     0.666666667
     0.000000000     0.416666667     0.750000000
     0.041666667     0.458333333     0.750000000
     0.000000000     0.416666667     0.833333333
     0.000000000     0.458333333     0.875000000
     0.041666667     0.416666667     0.875000000
     0.041666667     0.458333333     0.833333333
     0.000000000     0.416666667     0.916666667
     0.041666667     0.416666667     0.958333333
     0.041666667     0.458333333     0.916666667
     0.000000000     0.500000000     0.000000000
     0.000000000     0.541666667     0.041666667
     0.041666667     0.500000000     0.041666667
     0.041666667     0.541666667     0.000000000
     0.000000000     0.500000000     0.083333333
     0.000000000     0.541666667     0.125000000
     0.041666667     0.541666667     0.083333333
     0.000000000     0.500000000     0.166666667
     0.000000000     0.541666667     0.208333333
     0.041666667     0.500000000     0.208333333
     0.041666667     0.541666667     0.166666667
     0.000000000     0.500000000     0.250000000
     0.000000000     0.541666667     0.291666667
     0.041666667     0.500000000     0.291666667
     0.041666667     0.541666667     0.250000000
     0.000000000     0.500000000     0.333333333
     0.000000000     0.541666667     0.375000000
     0.041666667     0.500000000     0.375000000
     0.000000000     0.500000000     0.416666667
     0.000000000     0.541666667     0.458333333
     0.041666667     0.500000000     0.458333333
     0.000000000     0.500000000     0.500000000
     0.041666667     0.500000000     0.541666667
     0.041666667     0.541666667     0.500000000
     0.000000000     0.500000000     0.583333333
     0.000000000     0.541666667     0.625000000
     0.041666667     0.500000000     0.625000000
     0.000000000     0.500000000     0.666666667
     0.000000000     0.541666667     0.708333333
     0.041666667     0.500000000     0.708333333
     0.041666667     0.541666667     0.666666667
     0.000000000     0.500000000     0.750000000
     0.041666667     0.500000000     0.791666667
     0.000000000     0.500000000     0.833333333
     0.041666667     0.500000000     0.875000000
     0.041666667     0.541666667     0.833333333
     0.000000000     0.500000000     0.916666667
     0.041666667     0.500000000     0.958333333
     0.041666667     0.541666667     0.916666667
     0.000000000     0.583333333     0.000000000
     0.041666667     0.583333333     0.041666667
     0.000000000     0.583333333     0.083333333
     0.041666667     0.583333333     0.125000000
     0.041666667     0.625000000     0.083333333
     0.000000000     0.583333333     0.166666667
     0.041666667     0.583333333     0.208333333
     0.041666667     0.625000000     0.166666667
     0.000000000     0.583333333     0.250000000
     0.000000000     0.625000000     0.291666667
     0.041666667     0.625000000     0.250000000
     0.041666667     0.583333333     0.375000000
     0.041666667     0.625000000     0.333333333
     0.000000000     0.583333333     0.416666667
     0.000000000     0.625000000     0.458333333
     0.041666667     0.583333333     0.458333333
     0.041666667     0.625000000     0.416666667
     0.000000000     0.583333333     0.500000000
     0.000000000     0.625000000     0.541666667
     0.041666667     0.583333333     0.541666667
     0.041666667     0.625000000     0.500000000
     0.000000000     0.583333333     0.583333333
     0.000000000     0.625000000     0.625000000
     0.041666667     0.583333333     0.625000000
     0.000000000     0.583333333     0.666666667
     0.000000000     0.625000000     0.708333333
     0.000000000     0.583333333     0.750000000
     0.000000000     0.625000000     0.791666667
     0.041666667     0.583333333     0.791666667
     0.041666667     0.625000000     0.750000000
     0.000000000     0.583333333     0.833333333
     0.041666667     0.583333333     0.875000000
     0.041666667     0.625000000     0.833333333
     0.000000000     0.625000000     0.958333333
     0.000000000     0.666666667     0.000000000
     0.000000000     0.708333333     0.041666667
     0.041666667     0.708333333     0.000000000
     0.000000000     0.708333333     0.125000000
     0.041666667     0.666666667     0.125000000
     0.041666667     0.708333333     0.083333333
     0.000000000     0.666666667     0.166666667
     0.041666667     0.708333333     0.166666667
     0.000000000     0.666666667     0.250000000
     0.000000000     0.708333333     0.291666667
     0.041666667     0.666666667     0.291666667
     0.041666667     0.708333333     0.250000000
     0.000000000     0.666666667     0.333333333
     0.000000000     0.708333333     0.375000000
     0.041666667     0.666666667     0.375000000
     0.000000000     0.708333333     0.458333333
     0.000000000     0.666666667     0.500000000
     0.000000000     0.708333333     0.541666667
     0.041666667     0.708333333     0.500000000
     0.000000000     0.708333333     0.625000000
     0.041666667     0.666666667     0.625000000
     0.041666667     0.708333333     0.583333333
     0.041666667     0.666666667     0.708333333
     0.041666667     0.708333333     0.666666667
     0.000000000     0.666666667     0.750000000
     0.000000000     0.708333333     0.791666667
     0.041666667     0.666666667     0.791666667
     0.041666667     0.708333333     0.750000000
     0.000000000     0.666666667     0.833333333
     0.000000000     0.708333333     0.875000000
     0.041666667     0.666666667     0.875000000
     0.000000000     0.708333333     0.958333333
     0.041666667     0.666666667     0.958333333
     0.041666667     0.708333333     0.916666667
     0.000000000     0.750000000     0.000000000
     0.000000000     0.791666667     0.041666667
     0.041666667     0.750000000     0.041666667
     0.000000000     0.750000000     0.083333333
     0.041666667     0.750000000     0.125000000
     0.000000000     0.791666667     0.208333333
     0.041666667     0.791666667     0.166666667
     0.000000000     0.750000000     0.250000000
     0.000000000     0.791666667     0.291666667
     0.041666667     0.750000000     0.291666667
     0.000000000     0.791666667     0.375000000
     0.041666667     0.791666667     0.333333333
     0.000000000     0.750000000     0.416666667
     0.000000000     0.791666667     0.458333333
     0.041666667     0.750000000     0.458333333
     0.041666667     0.791666667     0.416666667
     0.041666667     0.750000000     0.541666667
     0.041666667     0.791666667     0.500000000
     0.000000000     0.791666667     0.625000000
     0.041666667     0.750000000     0.625000000
     0.041666667     0.791666667     0.583333333
     0.000000000     0.791666667     0.708333333
     0.041666667     0.750000000     0.708333333
     0.041666667     0.791666667     0.666666667
     0.000000000     0.750000000     0.750000000
     0.000000000     0.791666667     0.791666667
     0.041666667     0.750000000     0.791666667
     0.041666667     0.791666667     0.750000000
     0.000000000     0.791666667     0.875000000
     0.041666667     0.750000000     0.875000000
     0.041666667     0.791666667     0.833333333
     0.000000000     0.750000000     0.916666667
     0.000000000     0.791666667     0.958333333
     0.041666667     0.750000000     0.958333333
     0.041666667     0.791666667     0.916666667
     0.000000000     0.833333333     0.000000000
     0.041666667     0.875000000     0.000000000
     0.041666667     0.833333333     0.125000000
     0.041666667     0.875000000     0.083333333
     0.000000000     0.833333333     0.166666667
     0.041666667     0.833333333     0.208333333
     0.041666667     0.875000000     0.166666667
     0.000000000     0.833333333     0.250000000
     0.000000000     0.875000000     0.291666667
     0.041666667     0.875000000     0.250000000
     0.000000000     0.833333333     0.333333333
     0.000000000     0.875000000     0.375000000
     0.041666667     0.833333333     0.375000000
     0.041666667     0.875000000     0.333333333
     0.000000000     0.875000000     0.458333333
     0.041666667     0.833333333     0.458333333
     0.041666667     0.875000000     0.416666667
     0.000000000     0.875000000     0.541666667
     0.041666667     0.875000000     0.500000000
     0.000000000     0.833333333     0.583333333
     0.000000000     0.875000000     0.625000000
     0.041666667     0.833333333     0.625000000
     0.041666667     0.875000000     0.583333333
     0.000000000     0.833333333     0.666666667
     0.041666667     0.833333333     0.708333333
     0.041666667     0.875000000     0.666666667
     0.000000000     0.833333333     0.750000000
     0.000000000     0.875000000     0.791666667
     0.041666667     0.875000000     0.750000000
     0.000000000     0.833333333     0.833333333
     0.000000000     0.875000000     0.875000000
     0.041666667     0.833333333     0.875000000
     0.000000000     0.833333333     0.916666667
     0.000000000     0.875000000     0.958333333
     0.041666667     0.875000000     0.916666667
     0.000000000     0.916666667     0.000000000
     0.000000000     0.958333333     0.041666667
     0.041666667     0.916666667     0.041666667
     0.000000000     0.916666667     0.083333333
     0.000000000     0.958333333     0.125000000
     0.041666667     0.958333333     0.083333333
     0.041666667     0.958333333     0.166666667
     0.000000000     0.916666667     0.250000000
     0.000000000     0.958333333     0.291666667
     0.041666667     0.916666667     0.291666667
     0.041666667     0.958333333     0.250000000
     0.000000000     0.916666667     0.333333333
     0.000000000     0.958333333     0.375000000
     0.041666667     0.958333333     0.333333333
     0.000000000     0.916666667     0.416666667
     0.041666667     0.958333333     0.416666667
     0.000000000     0.916666667     0.500000000
     0.041666667     0.916666667     0.541666667
     0.041666667     0.958333333     0.500000000
     0.000000000     0.916666667     0.583333333
     0.000000000     0.958333333     0.625000000
     0.041666667     0.916666667     0.625000000
     0.000000000     0.916666667     0.666666667
     0.000000000     0.958333333     0.708333333
     0.041666667     0.916666667     0.708333333
     0.000000000     0.958333333     0.791666667
     0.041666667     0.916666667     0.791666667
     0.041666667     0.958333333     0.750000000
     0.000000000     0.916666667     0.833333333
     0.000000000     0.958333333     0.875000000
     0.041666667     0.916666667     0.875000000
     0.000000000     0.916666667     0.916666667
     0.041666667     0.958333333     0.916666667
     0.083333333     0.000000000     0.000000000
     0.083333333     0.041666667     0.041666667
     0.125000000     0.000000000     0.041666667
     0.125000000     0.041666667     0.000000000
     0.083333333     0.041666667     0.125000000
     0.083333333     0.041666667     0.208333333
     0.125000000     0.000000000     0.208333333
     0.083333333     0.000000000     0.250000000
     0.083333333     0.041666667     0.291666667
     0.125000000     0.000000000     0.291666667
     0.125000000     0.041666667     0.250000000
     0.125000000     0.000000000     0.375000000
     0.125000000     0.041666667     0.333333333
     0.083333333     0.041666667     0.458333333
     0.125000000     0.000000000     0.458333333
     0.083333333     0.000000000     0.500000000
     0.125000000     0.000000000     0.541666667
     0.125000000     0.041666667     0.500000000
     0.083333333     0.000000000     0.583333333
     0.083333333     0.041666667     0.625000000
     0.125000000     0.000000000     0.625000000
     0.125000000     0.041666667     0.583333333
     0.083333333     0.000000000     0.666666667
     0.083333333     0.041666667     0.708333333
     0.125000000     0.000000000     0.708333333
     0.125000000     0.041666667     0.666666667
     0.083333333     0.041666667     0.791666667
     0.125000000     0.000000000     0.791666667
     0.083333333     0.000000000     0.833333333
     0.083333333     0.041666667     0.875000000
     0.125000000     0.000000000     0.875000000
     0.083333333     0.000000000     0.916666667
     0.083333333     0.041666667     0.958333333
     0.083333333     0.083333333     0.000000000
     0.083333333     0.125000000     0.041666667
     0.125000000     0.083333333     0.041666667
     0.125000000     0.125000000     0.000000000
     0.083333333     0.083333333     0.083333333
     0.083333333     0.125000000     0.125000000
     0.125000000     0.125000000     0.083333333
     0.083333333     0.125000000     0.208333333
     0.125000000     0.125000000     0.166666667
     0.083333333     0.083333333     0.250000000
     0.125000000     0.083333333     0.291666667
     0.083333333     0.083333333     0.333333333
     0.083333333     0.125000000     0.375000000
     0.125000000     0.083333333     0.375000000
     0.083333333     0.083333333     0.416666667
     0.125000000     0.083333333     0.458333333
     0.125000000     0.125000000     0.416666667
     0.083333333     0.083333333     0.500000000
     0.125000000     0.083333333     0.541666667
     0.083333333     0.083333333     0.583333333
     0.083333333     0.125000000     0.625000000
     0.125000000     0.083333333     0.625000000
     0.125000000     0.125000000     0.583333333
     0.083333333     0.125000000     0.708333333
     0.125000000     0.083333333     0.708333333
     0.125000000     0.125000000     0.666666667
     0.083333333     0.083333333     0.750000000
     0.083333333     0.125000000     0.791666667
     0.125000000     0.083333333     0.791666667
     0.083333333     0.083333333     0.833333333
     0.083333333     0.125000000     0.875000000
     0.125000000     0.083333333     0.875000000
     0.125000000     0.125000000     0.833333333
     0.083333333     0.083333333     0.916666667
     0.083333333     0.125000000     0.958333333
     0.125000000     0.083333333     0.958333333
     0.125000000     0.125000000     0.916666667
     0.083333333     0.208333333     0.041666667
     0.125000000     0.166666667     0.041666667
     0.125000000     0.208333333     0.000000000
     0.083333333     0.208333333     0.125000000
     0.125000000     0.166666667     0.125000000
     0.125000000     0.208333333     0.083333333
     0.083333333     0.208333333     0.208333333
     0.125000000     0.166666667     0.208333333
     0.125000000     0.208333333     0.166666667
     0.083333333     0.208333333     0.291666667
     0.083333333     0.166666667     0.333333333
     0.083333333     0.208333333     0.458333333
     0.125000000     0.166666667     0.458333333
     0.083333333     0.166666667     0.500000000
     0.083333333     0.208333333     0.541666667
     0.125000000     0.166666667     0.541666667
     0.083333333     0.166666667     0.583333333
     0.083333333     0.208333333     0.625000000
     0.125000000     0.166666667     0.625000000
     0.125000000     0.208333333     0.583333333
     0.083333333     0.208333333     0.708333333
     0.125000000     0.208333333     0.666666667
     0.083333333     0.166666667     0.750000000
     0.125000000     0.166666667     0.791666667
     0.125000000     0.208333333     0.750000000
     0.083333333     0.166666667     0.833333333
     0.125000000     0.208333333     0.833333333
     0.125000000     0.166666667     0.958333333
     0.125000000     0.208333333     0.916666667
     0.083333333     0.250000000     0.000000000
     0.083333333     0.291666667     0.041666667
     0.125000000     0.250000000     0.041666667
     0.083333333     0.250000000     0.083333333
     0.083333333     0.291666667     0.125000000
     0.083333333     0.250000000     0.166666667
     0.125000000     0.250000000     0.208333333
     0.083333333     0.250000000     0.250000000
     0.125000000     0.250000000     0.291666667
     0.083333333     0.250000000     0.333333333
     0.125000000     0.291666667     0.333333333
     0.083333333     0.250000000     0.416666667
     0.125000000     0.250000000     0.458333333
     0.125000000     0.291666667     0.416666667
     0.083333333     0.250000000     0.500000000
     0.125000000     0.250000000     0.541666667
     0.125000000     0.291666667     0.500000000
     0.083333333     0.250000000     0.583333333
     0.083333333     0.291666667     0.625000000
     0.125000000     0.250000000     0.625000000
     0.125000000     0.291666667     0.583333333
     0.083333333     0.291666667     0.708333333
     0.125000000     0.250000000     0.708333333
     0.125000000     0.291666667     0.666666667
     0.083333333     0.250000000     0.750000000
     0.083333333     0.291666667     0.791666667
     0.125000000     0.250000000     0.791666667
     0.125000000     0.291666667     0.750000000
     0.083333333     0.250000000     0.833333333
     0.083333333     0.291666667     0.875000000
     0.125000000     0.250000000     0.875000000
     0.083333333     0.250000000     0.916666667
     0.083333333     0.291666667     0.958333333
     0.125000000     0.250000000     0.958333333
     0.125000000     0.291666667     0.916666667
     0.125000000     0.333333333     0.041666667
     0.083333333     0.333333333     0.083333333
     0.083333333     0.375000000     0.125000000
     0.125000000     0.375000000     0.083333333
     0.125000000     0.333333333     0.208333333
     0.083333333     0.333333333     0.250000000
     0.083333333     0.375000000     0.291666667
     0.125000000     0.333333333     0.291666667
     0.125000000     0.375000000     0.250000000
     0.083333333     0.333333333     0.333333333
     0.125000000     0.333333333     0.375000000
     0.125000000     0.375000000     0.333333333
     0.083333333     0.333333333     0.416666667
     0.083333333     0.375000000     0.458333333
     0.125000000     0.333333333     0.458333333
     0.125000000     0.375000000     0.416666667
     0.083333333     0.333333333     0.500000000
     0.083333333     0.375000000     0.541666667
     0.125000000     0.375000000     0.500000000
     0.083333333     0.333333333     0.583333333
     0.083333333     0.375000000     0.625000000
     0.125000000     0.333333333     0.625000000
     0.125000000     0.333333333     0.708333333
     0.083333333     0.333333333     0.750000000
     0.083333333     0.375000000     0.791666667
     0.125000000     0.333333333     0.791666667
     0.125000000     0.375000000     0.750000000
     0.083333333     0.333333333     0.833333333
     0.083333333     0.375000000     0.875000000
     0.125000000     0.333333333     0.875000000
     0.125000000     0.375000000     0.833333333
     0.083333333     0.333333333     0.916666667
     0.083333333     0.375000000     0.958333333
     0.125000000     0.333333333     0.958333333
     0.083333333     0.416666667     0.000000000
     0.083333333     0.458333333     0.041666667
     0.125000000     0.416666667     0.041666667
     0.083333333     0.416666667     0.083333333
     0.083333333     0.458333333     0.125000000
     0.125000000     0.416666667     0.125000000
     0.083333333     0.416666667     0.166666667
     0.083333333     0.458333333     0.208333333
     0.125000000     0.416666667     0.208333333
     0.083333333     0.416666667     0.250000000
     0.083333333     0.458333333     0.291666667
     0.125000000     0.416666667     0.291666667
     0.083333333     0.416666667     0.333333333
     0.083333333     0.458333333     0.375000000
     0.125000000     0.416666667     0.375000000
     0.083333333     0.416666667     0.416666667
     0.083333333     0.458333333     0.458333333
     0.125000000     0.416666667     0.458333333
     0.125000000     0.458333333     0.416666667
     0.083333333     0.458333333     0.541666667
     0.125000000     0.416666667     0.541666667
     0.125000000     0.458333333     0.500000000
     0.083333333     0.416666667     0.583333333
     0.125000000     0.416666667     0.625000000
     0.125000000     0.458333333     0.583333333
     0.083333333     0.416666667     0.666666667
     0.083333333     0.458333333     0.708333333
     0.125000000     0.458333333     0.666666667
     0.083333333     0.416666667     0.750000000
     0.083333333     0.458333333     0.791666667
     0.125000000     0.416666667     0.791666667
     0.083333333     0.458333333     0.875000000
     0.125000000     0.416666667     0.875000000
     0.125000000     0.458333333     0.833333333
     0.125000000     0.458333333     0.916666667
     0.083333333     0.500000000     0.000000000
     0.083333333     0.541666667     0.041666667
     0.125000000     0.500000000     0.041666667
     0.125000000     0.541666667     0.000000000
     0.083333333     0.500000000     0.083333333
     0.083333333     0.541666667     0.125000000
     0.125000000     0.500000000     0.125000000
     0.083333333     0.500000000     0.166666667
     0.125000000     0.500000000     0.208333333
     0.125000000     0.541666667     0.166666667
     0.083333333     0.500000000     0.250000000
     0.083333333     0.541666667     0.291666667
     0.125000000     0.500000000     0.291666667
     0.125000000     0.541666667     0.250000000
     0.083333333     0.500000000     0.333333333
     0.125000000     0.541666667     0.333333333
     0.083333333     0.500000000     0.416666667
     0.083333333     0.541666667     0.458333333
     0.125000000     0.500000000     0.458333333
     0.125000000     0.541666667     0.416666667
     0.083333333     0.541666667     0.541666667
     0.125000000     0.500000000     0.541666667
     0.125000000     0.541666667     0.500000000
     0.083333333     0.541666667     0.625000000
     0.125000000     0.500000000     0.625000000
     0.125000000     0.541666667     0.583333333
     0.083333333     0.500000000     0.666666667
     0.083333333     0.541666667     0.708333333
     0.125000000     0.500000000     0.708333333
     0.125000000     0.541666667     0.666666667
     0.083333333     0.500000000     0.750000000
     0.083333333     0.541666667     0.791666667
     0.125000000     0.500000000     0.791666667
     0.125000000     0.541666667     0.750000000
     0.083333333     0.500000000     0.916666667
     0.083333333     0.541666667     0.958333333
     0.125000000     0.541666667     0.916666667
     0.083333333     0.583333333     0.000000000
     0.125000000     0.583333333     0.041666667
     0.125000000     0.625000000     0.000000000
     0.083333333     0.625000000     0.125000000
     0.125000000     0.583333333     0.125000000
     0.125000000     0.625000000     0.083333333
     0.083333333     0.583333333     0.166666667
     0.125000000     0.583333333     0.208333333
     0.125000000     0.625000000     0.166666667
     0.083333333     0.583333333     0.250000000
     0.083333333     0.625000000     0.291666667
     0.125000000     0.583333333     0.291666667
     0.125000000     0.625000000     0.250000000
     0.083333333     0.625000000     0.375000000
     0.125000000     0.625000000     0.333333333
     0.083333333     0.583333333     0.416666667
     0.083333333     0.625000000     0.458333333
     0.125000000     0.583333333     0.541666667
     0.083333333     0.583333333     0.583333333
     0.083333333     0.625000000     0.625000000
     0.125000000     0.583333333     0.625000000
     0.125000000     0.625000000     0.583333333
     0.083333333     0.583333333     0.666666667
     0.083333333     0.625000000     0.708333333
     0.083333333     0.625000000     0.791666667
     0.125000000     0.583333333     0.791666667
     0.125000000     0.625000000     0.750000000
     0.083333333     0.625000000     0.875000000
     0.125000000     0.583333333     0.875000000
     0.125000000     0.625000000     0.833333333
     0.083333333     0.625000000     0.958333333
     0.125000000     0.583333333     0.958333333
     0.083333333     0.708333333     0.041666667
     0.083333333     0.666666667     0.083333333
     0.083333333     0.708333333     0.125000000
     0.125000000     0.708333333     0.083333333
     0.083333333     0.708333333     0.208333333
     0.125000000     0.708333333     0.166666667
     0.083333333     0.708333333     0.291666667
     0.125000000     0.708333333     0.250000000
     0.083333333     0.708333333     0.375000000
     0.125000000     0.708333333     0.333333333
     0.083333333     0.666666667     0.416666667
     0.083333333     0.708333333     0.458333333
     0.083333333     0.666666667     0.500000000
     0.083333333     0.708333333     0.541666667
     0.125000000     0.666666667     0.541666667
     0.125000000     0.708333333     0.500000000
     0.083333333     0.666666667     0.583333333
     0.083333333     0.708333333     0.625000000
     0.125000000     0.666666667     0.625000000
     0.083333333     0.666666667     0.666666667
     0.083333333     0.708333333     0.708333333
     0.125000000     0.666666667     0.708333333
     0.083333333     0.666666667     0.750000000
     0.125000000     0.666666667     0.791666667
     0.083333333     0.708333333     0.875000000
     0.125000000     0.666666667     0.875000000
     0.125000000     0.708333333     0.833333333
     0.083333333     0.666666667     0.916666667
     0.125000000     0.708333333     0.916666667
     0.083333333     0.791666667     0.041666667
     0.125000000     0.750000000     0.041666667
     0.125000000     0.791666667     0.000000000
     0.083333333     0.750000000     0.083333333
     0.083333333     0.791666667     0.125000000
     0.125000000     0.750000000     0.125000000
     0.125000000     0.791666667     0.083333333
     0.083333333     0.791666667     0.208333333
     0.125000000     0.791666667     0.166666667
     0.083333333     0.791666667     0.291666667
     0.125000000     0.750000000     0.291666667
     0.125000000     0.791666667     0.250000000
     0.083333333     0.791666667     0.375000000
     0.125000000     0.750000000     0.375000000
     0.125000000     0.791666667     0.333333333
     0.083333333     0.750000000     0.416666667
     0.125000000     0.750000000     0.458333333
     0.125000000     0.791666667     0.416666667
     0.083333333     0.750000000     0.500000000
     0.125000000     0.750000000     0.541666667
     0.125000000     0.791666667     0.500000000
     0.083333333     0.750000000     0.583333333
     0.125000000     0.750000000     0.625000000
     0.125000000     0.791666667     0.583333333
     0.083333333     0.791666667     0.708333333
     0.125000000     0.750000000     0.708333333
     0.125000000     0.791666667     0.666666667
     0.083333333     0.750000000     0.750000000
     0.083333333     0.791666667     0.791666667
     0.125000000     0.750000000     0.791666667
     0.125000000     0.791666667     0.750000000
     0.125000000     0.750000000     0.875000000
     0.083333333     0.750000000     0.916666667
     0.083333333     0.791666667     0.958333333
     0.125000000     0.791666667     0.916666667
     0.083333333     0.875000000     0.041666667
     0.125000000     0.833333333     0.041666667
     0.083333333     0.833333333     0.083333333
     0.125000000     0.875000000     0.083333333
     0.083333333     0.833333333     0.166666667
     0.083333333     0.875000000     0.208333333
     0.083333333     0.875000000     0.291666667
     0.125000000     0.833333333     0.291666667
     0.083333333     0.833333333     0.333333333
     0.083333333     0.875000000     0.375000000
     0.125000000     0.833333333     0.375000000
     0.125000000     0.875000000     0.333333333
     0.083333333     0.833333333     0.416666667
     0.083333333     0.875000000     0.458333333
     0.125000000     0.875000000     0.416666667
     0.083333333     0.833333333     0.500000000
     0.083333333     0.875000000     0.541666667
     0.125000000     0.833333333     0.541666667
     0.083333333     0.833333333     0.583333333
     0.125000000     0.833333333     0.625000000
     0.125000000     0.875000000     0.583333333
     0.083333333     0.833333333     0.666666667
     0.083333333     0.875000000     0.708333333
     0.125000000     0.833333333     0.708333333
     0.125000000     0.875000000     0.666666667
     0.083333333     0.833333333     0.750000000
     0.083333333     0.875000000     0.791666667
     0.125000000     0.833333333     0.791666667
     0.125000000     0.875000000     0.750000000
     0.083333333     0.875000000     0.875000000
     0.125000000     0.875000000     0.833333333
     0.083333333     0.833333333     0.916666667
     0.083333333     0.875000000     0.958333333
     0.125000000     0.833333333     0.958333333
     0.125000000     0.875000000     0.916666667
     0.083333333     0.916666667     0.000000000
     0.083333333     0.958333333     0.041666667
     0.125000000     0.916666667     0.041666667
     0.083333333     0.916666667     0.083333333
     0.083333333     0.916666667     0.166666667
     0.083333333     0.958333333     0.208333333
     0.125000000     0.916666667     0.208333333
     0.125000000     0.916666667     0.291666667
     0.125000000     0.958333333     0.250000000
     0.083333333     0.916666667     0.333333333
     0.083333333     0.958333333     0.375000000
     0.125000000     0.916666667     0.375000000
     0.125000000     0.958333333     0.333333333
     0.083333333     0.916666667     0.416666667
     0.083333333     0.958333333     0.458333333
     0.083333333     0.916666667     0.500000000
     0.083333333     0.958333333     0.541666667
     0.125000000     0.916666667     0.541666667
     0.125000000     0.958333333     0.500000000
     0.083333333     0.916666667     0.583333333
     0.083333333     0.958333333     0.625000000
     0.125000000     0.916666667     0.625000000
     0.083333333     0.916666667     0.666666667
     0.083333333     0.958333333     0.708333333
     0.125000000     0.916666667     0.708333333
     0.083333333     0.916666667     0.750000000
     0.083333333     0.958333333     0.791666667
     0.125000000     0.958333333     0.750000000
     0.083333333     0.958333333     0.875000000
     0.125000000     0.916666667     0.875000000
     0.125000000     0.958333333     0.833333333
     0.083333333     0.958333333     0.958333333
     0.125000000     0.916666667     0.958333333
     0.125000000     0.958333333     0.916666667
     0.166666667     0.000000000     0.000000000
     0.208333333     0.000000000     0.041666667
     0.166666667     0.000000000     0.083333333
     0.166666667     0.041666667     0.125000000
     0.208333333     0.041666667     0.083333333
     0.166666667     0.000000000     0.166666667
     0.166666667     0.041666667     0.208333333
     0.208333333     0.000000000     0.208333333
     0.208333333     0.041666667     0.166666667
     0.166666667     0.000000000     0.250000000
     0.208333333     0.000000000     0.291666667
     0.208333333     0.041666667     0.250000000
     0.166666667     0.000000000     0.333333333
     0.166666667     0.041666667     0.375000000
     0.208333333     0.041666667     0.333333333
     0.166666667     0.000000000     0.416666667
     0.166666667     0.041666667     0.458333333
     0.208333333     0.000000000     0.458333333
     0.166666667     0.000000000     0.500000000
     0.166666667     0.041666667     0.541666667
     0.208333333     0.000000000     0.541666667
     0.166666667     0.000000000     0.583333333
     0.166666667     0.041666667     0.625000000
     0.208333333     0.000000000     0.625000000
     0.166666667     0.000000000     0.666666667
     0.166666667     0.041666667     0.708333333
     0.208333333     0.000000000     0.708333333
     0.166666667     0.041666667     0.791666667
     0.208333333     0.000000000     0.791666667
     0.208333333     0.041666667     0.750000000
     0.166666667     0.000000000     0.833333333
     0.166666667     0.041666667     0.875000000
     0.208333333     0.000000000     0.875000000
     0.208333333     0.041666667     0.833333333
     0.166666667     0.000000000     0.916666667
     0.166666667     0.041666667     0.958333333
     0.208333333     0.000000000     0.958333333
     0.208333333     0.041666667     0.916666667
     0.166666667     0.083333333     0.000000000
     0.208333333     0.083333333     0.041666667
     0.166666667     0.083333333     0.083333333
     0.166666667     0.125000000     0.125000000
     0.208333333     0.083333333     0.125000000
     0.166666667     0.125000000     0.208333333
     0.208333333     0.083333333     0.208333333
     0.166666667     0.083333333     0.250000000
     0.166666667     0.125000000     0.291666667
     0.208333333     0.083333333     0.291666667
     0.208333333     0.125000000     0.250000000
     0.208333333     0.083333333     0.375000000
     0.208333333     0.125000000     0.333333333
     0.166666667     0.083333333     0.416666667
     0.166666667     0.125000000     0.458333333
     0.166666667     0.083333333     0.500000000
     0.166666667     0.125000000     0.541666667
     0.208333333     0.083333333     0.541666667
     0.208333333     0.125000000     0.500000000
     0.166666667     0.125000000     0.625000000
     0.208333333     0.083333333     0.625000000
     0.166666667     0.083333333     0.666666667
     0.166666667     0.125000000     0.708333333
     0.208333333     0.125000000     0.666666667
     0.166666667     0.083333333     0.750000000
     0.166666667     0.125000000     0.791666667
     0.208333333     0.083333333     0.791666667
     0.208333333     0.125000000     0.750000000
     0.208333333     0.083333333     0.875000000
     0.208333333     0.125000000     0.833333333
     0.208333333     0.083333333     0.958333333
     0.166666667     0.166666667     0.000000000
     0.166666667     0.208333333     0.041666667
     0.208333333     0.166666667     0.041666667
     0.208333333     0.208333333     0.000000000
     0.166666667     0.208333333     0.125000000
     0.166666667     0.166666667     0.166666667
     0.208333333     0.166666667     0.208333333
     0.208333333     0.208333333     0.166666667
     0.166666667     0.166666667     0.250000000
     0.166666667     0.208333333     0.291666667
     0.208333333     0.166666667     0.291666667
     0.208333333     0.208333333     0.250000000
     0.166666667     0.208333333     0.375000000
     0.208333333     0.166666667     0.375000000
     0.166666667     0.166666667     0.416666667
     0.166666667     0.208333333     0.458333333
     0.208333333     0.166666667     0.458333333
     0.208333333     0.208333333     0.416666667
     0.166666667     0.166666667     0.500000000
     0.166666667     0.208333333     0.541666667
     0.208333333     0.166666667     0.541666667
     0.208333333     0.208333333     0.500000000
     0.166666667     0.166666667     0.583333333
     0.166666667     0.208333333     0.625000000
     0.208333333     0.208333333     0.583333333
     0.166666667     0.166666667     0.666666667
     0.166666667     0.208333333     0.708333333
     0.208333333     0.166666667     0.708333333
     0.208333333     0.208333333     0.666666667
     0.166666667     0.208333333     0.791666667
     0.208333333     0.166666667     0.791666667
     0.208333333     0.208333333     0.750000000
     0.166666667     0.166666667     0.833333333
     0.166666667     0.208333333     0.875000000
     0.208333333     0.208333333     0.833333333
     0.166666667     0.166666667     0.916666667
     0.166666667     0.208333333     0.958333333
     0.208333333     0.166666667     0.958333333
     0.208333333     0.208333333     0.916666667
     0.166666667     0.250000000     0.000000000
     0.166666667     0.291666667     0.041666667
     0.208333333     0.250000000     0.041666667
     0.208333333     0.291666667     0.000000000
     0.166666667     0.291666667     0.125000000
     0.208333333     0.291666667     0.083333333
     0.166666667     0.250000000     0.166666667
     0.208333333     0.250000000     0.291666667
     0.166666667     0.250000000     0.333333333
     0.166666667     0.291666667     0.375000000
     0.208333333     0.250000000     0.375000000
     0.208333333     0.291666667     0.333333333
     0.166666667     0.250000000     0.416666667
     0.166666667     0.291666667     0.458333333
     0.208333333     0.291666667     0.416666667
     0.166666667     0.291666667     0.541666667
     0.208333333     0.250000000     0.541666667
     0.166666667     0.250000000     0.583333333
     0.166666667     0.291666667     0.625000000
     0.208333333     0.291666667     0.583333333
     0.166666667     0.250000000     0.666666667
     0.166666667     0.291666667     0.708333333
     0.208333333     0.250000000     0.708333333
     0.208333333     0.291666667     0.666666667
     0.166666667     0.250000000     0.750000000
     0.166666667     0.291666667     0.791666667
     0.208333333     0.250000000     0.791666667
     0.166666667     0.250000000     0.833333333
     0.166666667     0.291666667     0.875000000
     0.208333333     0.291666667     0.833333333
     0.166666667     0.250000000     0.916666667
     0.166666667     0.291666667     0.958333333
     0.208333333     0.250000000     0.958333333
     0.166666667     0.375000000     0.041666667
     0.208333333     0.333333333     0.041666667
     0.166666667     0.333333333     0.083333333
     0.208333333     0.375000000     0.083333333
     0.166666667     0.333333333     0.166666667
     0.208333333     0.333333333     0.208333333
     0.208333333     0.333333333     0.291666667
     0.166666667     0.333333333     0.333333333
     0.166666667     0.375000000     0.375000000
     0.208333333     0.333333333     0.375000000
     0.208333333     0.333333333     0.458333333
     0.208333333     0.375000000     0.416666667
     0.166666667     0.333333333     0.500000000
     0.208333333     0.333333333     0.541666667
     0.208333333     0.375000000     0.500000000
     0.166666667     0.333333333     0.583333333
     0.166666667     0.375000000     0.625000000
     0.208333333     0.333333333     0.625000000
     0.208333333     0.375000000     0.583333333
     0.166666667     0.333333333     0.666666667
     0.166666667     0.375000000     0.708333333
     0.166666667     0.333333333     0.750000000
     0.208333333     0.333333333     0.791666667
     0.208333333     0.375000000     0.750000000
     0.166666667     0.333333333     0.833333333
     0.166666667     0.375000000     0.875000000
     0.208333333     0.333333333     0.875000000
     0.166666667     0.333333333     0.916666667
     0.166666667     0.375000000     0.958333333
     0.208333333     0.333333333     0.958333333
     0.166666667     0.416666667     0.000000000
     0.208333333     0.416666667     0.041666667
     0.166666667     0.458333333     0.125000000
     0.208333333     0.416666667     0.125000000
     0.208333333     0.458333333     0.083333333
     0.166666667     0.458333333     0.208333333
     0.208333333     0.416666667     0.208333333
     0.166666667     0.416666667     0.250000000
     0.166666667     0.458333333     0.291666667
     0.208333333     0.458333333     0.250000000
     0.166666667     0.416666667     0.333333333
     0.166666667     0.458333333     0.375000000
     0.208333333     0.416666667     0.375000000
     0.208333333     0.458333333     0.333333333
     0.166666667     0.416666667     0.416666667
     0.166666667     0.458333333     0.458333333
     0.166666667     0.416666667     0.500000000
     0.208333333     0.458333333     0.500000000
     0.166666667     0.458333333     0.625000000
     0.208333333     0.416666667     0.625000000
     0.208333333     0.458333333     0.583333333
     0.166666667     0.458333333     0.708333333
     0.208333333     0.416666667     0.708333333
     0.208333333     0.458333333     0.666666667
     0.166666667     0.416666667     0.750000000
     0.166666667     0.458333333     0.791666667
     0.208333333     0.416666667     0.791666667
     0.166666667     0.416666667     0.833333333
     0.166666667     0.458333333     0.875000000
     0.208333333     0.458333333     0.833333333
     0.166666667     0.416666667     0.916666667
     0.166666667     0.458333333     0.958333333
     0.208333333     0.458333333     0.916666667
     0.166666667     0.541666667     0.041666667
     0.208333333     0.500000000     0.041666667
     0.208333333     0.541666667     0.000000000
     0.166666667     0.500000000     0.083333333
     0.166666667     0.541666667     0.125000000
     0.208333333     0.500000000     0.125000000
     0.208333333     0.541666667     0.083333333
     0.166666667     0.500000000     0.166666667
     0.208333333     0.500000000     0.208333333
     0.208333333     0.541666667     0.166666667
     0.166666667     0.541666667     0.291666667
     0.208333333     0.500000000     0.291666667
     0.208333333     0.541666667     0.250000000
     0.166666667     0.500000000     0.333333333
     0.166666667     0.541666667     0.375000000
     0.166666667     0.541666667     0.458333333
     0.208333333     0.500000000     0.458333333
     0.166666667     0.500000000     0.500000000
     0.208333333     0.541666667     0.500000000
     0.166666667     0.500000000     0.583333333
     0.166666667     0.541666667     0.625000000
     0.208333333     0.500000000     0.625000000
     0.208333333     0.541666667     0.583333333
     0.166666667     0.500000000     0.666666667
     0.208333333     0.500000000     0.708333333
     0.166666667     0.500000000     0.750000000
     0.208333333     0.500000000     0.791666667
     0.208333333     0.541666667     0.750000000
     0.166666667     0.541666667     0.875000000
     0.208333333     0.500000000     0.875000000
     0.208333333     0.541666667     0.833333333
     0.166666667     0.500000000     0.916666667
     0.208333333     0.541666667     0.916666667
     0.166666667     0.583333333     0.000000000
     0.166666667     0.625000000     0.041666667
     0.208333333     0.583333333     0.041666667
     0.208333333     0.625000000     0.000000000
     0.166666667     0.583333333     0.083333333
     0.166666667     0.625000000     0.125000000
     0.208333333     0.583333333     0.125000000
     0.166666667     0.625000000     0.208333333
     0.208333333     0.583333333     0.208333333
     0.208333333     0.625000000     0.166666667
     0.166666667     0.583333333     0.250000000
     0.166666667     0.625000000     0.291666667
     0.208333333     0.583333333     0.291666667
     0.208333333     0.625000000     0.250000000
     0.166666667     0.583333333     0.333333333
     0.166666667     0.625000000     0.375000000
     0.208333333     0.625000000     0.333333333
     0.166666667     0.583333333     0.416666667
     0.166666667     0.625000000     0.458333333
     0.208333333     0.583333333     0.458333333
     0.208333333     0.625000000     0.416666667
     0.166666667     0.583333333     0.500000000
     0.208333333     0.625000000     0.500000000
     0.166666667     0.583333333     0.583333333
     0.208333333     0.625000000     0.583333333
     0.166666667     0.583333333     0.666666667
     0.166666667     0.625000000     0.708333333
     0.208333333     0.583333333     0.708333333
     0.208333333     0.625000000     0.666666667
     0.166666667     0.583333333     0.750000000
     0.166666667     0.625000000     0.791666667
     0.208333333     0.583333333     0.791666667
     0.208333333     0.625000000     0.750000000
     0.166666667     0.583333333     0.833333333
     0.208333333     0.625000000     0.833333333
     0.166666667     0.583333333     0.916666667
     0.166666667     0.625000000     0.958333333
     0.208333333     0.583333333     0.958333333
     0.166666667     0.666666667     0.000000000
     0.208333333     0.666666667     0.041666667
     0.166666667     0.666666667     0.083333333
     0.208333333     0.666666667     0.125000000
     0.208333333     0.708333333     0.083333333
     0.166666667     0.666666667     0.166666667
     0.166666667     0.708333333     0.208333333
     0.208333333     0.666666667     0.208333333
     0.208333333     0.708333333     0.166666667
     0.208333333     0.666666667     0.291666667
     0.208333333     0.708333333     0.250000000
     0.166666667     0.666666667     0.333333333
     0.208333333     0.666666667     0.375000000
     0.208333333     0.708333333     0.333333333
     0.166666667     0.666666667     0.416666667
     0.166666667     0.708333333     0.458333333
     0.208333333     0.666666667     0.458333333
     0.166666667     0.666666667     0.500000000
     0.166666667     0.708333333     0.541666667
     0.208333333     0.666666667     0.541666667
     0.208333333     0.708333333     0.500000000
     0.166666667     0.666666667     0.583333333
     0.208333333     0.666666667     0.625000000
     0.208333333     0.708333333     0.583333333
     0.166666667     0.666666667     0.666666667
     0.166666667     0.708333333     0.708333333
     0.208333333     0.666666667     0.708333333
     0.208333333     0.708333333     0.666666667
     0.166666667     0.666666667     0.750000000
     0.166666667     0.708333333     0.791666667
     0.208333333     0.666666667     0.791666667
     0.166666667     0.666666667     0.833333333
     0.208333333     0.666666667     0.875000000
     0.208333333     0.708333333     0.833333333
     0.166666667     0.666666667     0.916666667
     0.166666667     0.708333333     0.958333333
     0.166666667     0.750000000     0.000000000
     0.166666667     0.791666667     0.041666667
     0.208333333     0.750000000     0.041666667
     0.208333333     0.791666667     0.000000000
     0.166666667     0.750000000     0.083333333
     0.208333333     0.750000000     0.125000000
     0.166666667     0.791666667     0.208333333
     0.208333333     0.750000000     0.208333333
     0.208333333     0.791666667     0.166666667
     0.166666667     0.750000000     0.250000000
     0.166666667     0.791666667     0.291666667
     0.208333333     0.791666667     0.250000000
     0.208333333     0.791666667     0.333333333
     0.166666667     0.750000000     0.416666667
     0.166666667     0.791666667     0.458333333
     0.208333333     0.750000000     0.458333333
     0.166666667     0.750000000     0.500000000
     0.166666667     0.791666667     0.541666667
     0.208333333     0.750000000     0.541666667
     0.208333333     0.791666667     0.500000000
     0.166666667     0.750000000     0.583333333
     0.208333333     0.791666667     0.583333333
     0.166666667     0.791666667     0.708333333
     0.208333333     0.791666667     0.666666667
     0.208333333     0.791666667     0.750000000
     0.166666667     0.791666667     0.875000000
     0.208333333     0.791666667     0.833333333
     0.166666667     0.750000000     0.916666667
     0.166666667     0.791666667     0.958333333
     0.208333333     0.791666667     0.916666667
     0.166666667     0.833333333     0.000000000
     0.208333333     0.833333333     0.041666667
     0.208333333     0.875000000     0.000000000
     0.166666667     0.833333333     0.083333333
     0.166666667     0.875000000     0.125000000
     0.208333333     0.833333333     0.125000000
     0.208333333     0.875000000     0.083333333
     0.208333333     0.833333333     0.208333333
     0.208333333     0.875000000     0.166666667
     0.166666667     0.875000000     0.291666667
     0.208333333     0.833333333     0.291666667
     0.208333333     0.875000000     0.250000000
     0.166666667     0.833333333     0.333333333
     0.208333333     0.833333333     0.375000000
     0.166666667     0.833333333     0.416666667
     0.208333333     0.833333333     0.458333333
     0.208333333     0.875000000     0.416666667
     0.166666667     0.833333333     0.500000000
     0.166666667     0.875000000     0.541666667
     0.208333333     0.833333333     0.541666667
     0.208333333     0.875000000     0.500000000
     0.166666667     0.833333333     0.583333333
     0.166666667     0.875000000     0.625000000
     0.208333333     0.833333333     0.625000000
     0.208333333     0.875000000     0.583333333
     0.166666667     0.833333333     0.666666667
     0.166666667     0.875000000     0.708333333
     0.166666667     0.875000000     0.791666667
     0.208333333     0.833333333     0.791666667
     0.208333333     0.875000000     0.750000000
     0.166666667     0.833333333     0.833333333
     0.166666667     0.875000000     0.875000000
     0.208333333     0.875000000     0.833333333
     0.166666667     0.833333333     0.916666667
     0.166666667     0.875000000     0.958333333
     0.208333333     0.833333333     0.958333333
     0.208333333     0.875000000     0.916666667
     0.166666667     0.916666667     0.000000000
     0.166666667     0.958333333     0.041666667
     0.208333333     0.958333333     0.000000000
     0.166666667     0.916666667     0.083333333
     0.166666667     0.958333333     0.125000000
     0.208333333     0.916666667     0.125000000
     0.208333333     0.958333333     0.083333333
     0.166666667     0.958333333     0.208333333
     0.208333333     0.916666667     0.208333333
     0.166666667     0.916666667     0.250000000
     0.166666667     0.958333333     0.291666667
     0.166666667     0.916666667     0.333333333
     0.166666667     0.958333333     0.375000000
     0.166666667     0.916666667     0.416666667
     0.166666667     0.958333333     0.458333333
     0.208333333     0.916666667     0.458333333
     0.208333333     0.958333333     0.416666667
     0.208333333     0.958333333     0.500000000
     0.166666667     0.916666667     0.583333333
     0.166666667     0.958333333     0.625000000
     0.208333333     0.916666667     0.625000000
     0.208333333     0.958333333     0.583333333
     0.166666667     0.916666667     0.666666667
     0.166666667     0.958333333     0.708333333
     0.208333333     0.916666667     0.708333333
     0.208333333     0.958333333     0.666666667
     0.166666667     0.916666667     0.750000000
     0.166666667     0.958333333     0.791666667
     0.208333333     0.958333333     0.750000000
     0.166666667     0.958333333     0.875000000
     0.208333333     0.916666667     0.875000000
     0.208333333     0.958333333     0.833333333
     0.208333333     0.958333333     0.916666667
     0.250000000     0.000000000     0.000000000
     0.291666667     0.000000000     0.041666667
     0.291666667     0.041666667     0.000000000
     0.250000000     0.041666667     0.125000000
     0.291666667     0.000000000     0.125000000
     0.250000000     0.000000000     0.166666667
     0.250000000     0.041666667     0.208333333
     0.291666667     0.000000000     0.208333333
     0.250000000     0.041666667     0.291666667
     0.291666667     0.000000000     0.291666667
     0.291666667     0.041666667     0.250000000
     0.250000000     0.041666667     0.375000000
     0.291666667     0.000000000     0.375000000
     0.291666667     0.041666667     0.333333333
     0.250000000     0.000000000     0.416666667
     0.250000000     0.041666667     0.458333333
     0.291666667     0.041666667     0.416666667
     0.250000000     0.041666667     0.541666667
     0.291666667     0.000000000     0.541666667
     0.250000000     0.000000000     0.583333333
     0.250000000     0.041666667     0.625000000
     0.291666667     0.041666667     0.583333333
     0.250000000     0.000000000     0.666666667
     0.250000000     0.041666667     0.708333333
     0.291666667     0.000000000     0.708333333
     0.250000000     0.000000000     0.750000000
     0.250000000     0.041666667     0.791666667
     0.291666667     0.041666667     0.750000000
     0.250000000     0.000000000     0.833333333
     0.250000000     0.041666667     0.875000000
     0.250000000     0.000000000     0.916666667
     0.250000000     0.041666667     0.958333333
     0.291666667     0.000000000     0.958333333
     0.250000000     0.083333333     0.000000000
     0.250000000     0.125000000     0.041666667
     0.291666667     0.083333333     0.041666667
     0.250000000     0.083333333     0.083333333
     0.250000000     0.125000000     0.125000000
     0.291666667     0.125000000     0.083333333
     0.291666667     0.083333333     0.208333333
     0.250000000     0.083333333     0.250000000
     0.250000000     0.125000000     0.291666667
     0.291666667     0.083333333     0.291666667
     0.250000000     0.083333333     0.333333333
     0.250000000     0.125000000     0.375000000
     0.250000000     0.083333333     0.416666667
     0.291666667     0.083333333     0.458333333
     0.291666667     0.125000000     0.416666667
     0.250000000     0.083333333     0.500000000
     0.250000000     0.125000000     0.541666667
     0.291666667     0.125000000     0.500000000
     0.250000000     0.083333333     0.583333333
     0.250000000     0.125000000     0.625000000
     0.291666667     0.083333333     0.625000000
     0.291666667     0.125000000     0.583333333
     0.250000000     0.083333333     0.666666667
     0.250000000     0.125000000     0.708333333
     0.291666667     0.083333333     0.708333333
     0.291666667     0.125000000     0.666666667
     0.250000000     0.083333333     0.750000000
     0.250000000     0.125000000     0.791666667
     0.291666667     0.083333333     0.791666667
     0.291666667     0.125000000     0.750000000
     0.250000000     0.083333333     0.833333333
     0.250000000     0.125000000     0.875000000
     0.291666667     0.083333333     0.875000000
     0.250000000     0.083333333     0.916666667
     0.291666667     0.083333333     0.958333333
     0.250000000     0.208333333     0.041666667
     0.291666667     0.166666667     0.041666667
     0.250000000     0.208333333     0.125000000
     0.291666667     0.166666667     0.125000000
     0.291666667     0.208333333     0.083333333
     0.250000000     0.166666667     0.166666667
     0.250000000     0.208333333     0.208333333
     0.291666667     0.166666667     0.208333333
     0.291666667     0.208333333     0.166666667
     0.250000000     0.166666667     0.250000000
     0.250000000     0.208333333     0.291666667
     0.250000000     0.166666667     0.333333333
     0.250000000     0.208333333     0.375000000
     0.291666667     0.208333333     0.333333333
     0.250000000     0.166666667     0.416666667
     0.291666667     0.208333333     0.416666667
     0.250000000     0.208333333     0.541666667
     0.291666667     0.166666667     0.541666667
     0.291666667     0.208333333     0.500000000
     0.291666667     0.166666667     0.625000000
     0.250000000     0.208333333     0.708333333
     0.291666667     0.166666667     0.708333333
     0.291666667     0.208333333     0.666666667
     0.250000000     0.166666667     0.750000000
     0.250000000     0.208333333     0.791666667
     0.291666667     0.208333333     0.750000000
     0.250000000     0.166666667     0.833333333
     0.250000000     0.208333333     0.875000000
     0.291666667     0.166666667     0.875000000
     0.250000000     0.166666667     0.916666667
     0.250000000     0.208333333     0.958333333
     0.291666667     0.166666667     0.958333333
     0.291666667     0.208333333     0.916666667
     0.250000000     0.250000000     0.000000000
     0.250000000     0.291666667     0.041666667
     0.291666667     0.250000000     0.041666667
     0.291666667     0.291666667     0.000000000
     0.250000000     0.250000000     0.083333333
     0.250000000     0.291666667     0.125000000
     0.291666667     0.291666667     0.083333333
     0.250000000     0.291666667     0.208333333
     0.291666667     0.291666667     0.166666667
     0.250000000     0.250000000     0.250000000
     0.250000000     0.250000000     0.333333333
     0.250000000     0.291666667     0.375000000
     0.291666667     0.250000000     0.375000000
     0.291666667     0.291666667     0.333333333
     0.250000000     0.250000000     0.416666667
     0.250000000     0.291666667     0.458333333
     0.291666667     0.250000000     0.458333333
     0.250000000     0.250000000     0.500000000
     0.250000000     0.291666667     0.541666667
     0.291666667     0.250000000     0.541666667
     0.250000000     0.291666667     0.625000000
     0.250000000     0.250000000     0.666666667
     0.250000000     0.291666667     0.708333333
     0.291666667     0.250000000     0.708333333
     0.291666667     0.291666667     0.666666667
     0.250000000     0.250000000     0.750000000
     0.250000000     0.291666667     0.791666667
     0.291666667     0.250000000     0.791666667
     0.291666667     0.291666667     0.750000000
     0.250000000     0.250000000     0.833333333
     0.291666667     0.291666667     0.833333333
     0.250000000     0.291666667     0.958333333
     0.291666667     0.250000000     0.958333333
     0.291666667     0.291666667     0.916666667
     0.250000000     0.375000000     0.041666667
     0.291666667     0.333333333     0.041666667
     0.291666667     0.375000000     0.000000000
     0.250000000     0.375000000     0.125000000
     0.291666667     0.333333333     0.125000000
     0.291666667     0.375000000     0.083333333
     0.250000000     0.333333333     0.166666667
     0.250000000     0.375000000     0.208333333
     0.291666667     0.333333333     0.208333333
     0.291666667     0.375000000     0.166666667
     0.250000000     0.333333333     0.250000000
     0.291666667     0.375000000     0.250000000
     0.250000000     0.333333333     0.333333333
     0.250000000     0.375000000     0.375000000
     0.291666667     0.375000000     0.333333333
     0.250000000     0.333333333     0.416666667
     0.250000000     0.375000000     0.458333333
     0.291666667     0.333333333     0.458333333
     0.291666667     0.375000000     0.416666667
     0.250000000     0.333333333     0.500000000
     0.250000000     0.375000000     0.541666667
     0.291666667     0.375000000     0.500000000
     0.250000000     0.333333333     0.583333333
     0.291666667     0.333333333     0.625000000
     0.291666667     0.375000000     0.583333333
     0.250000000     0.333333333     0.666666667
     0.291666667     0.333333333     0.708333333
     0.291666667     0.375000000     0.666666667
     0.250000000     0.333333333     0.750000000
     0.291666667     0.375000000     0.750000000
     0.250000000     0.333333333     0.833333333
     0.250000000     0.375000000     0.875000000
     0.291666667     0.375000000     0.833333333
     0.250000000     0.333333333     0.916666667
     0.291666667     0.333333333     0.958333333
     0.291666667     0.375000000     0.916666667
     0.250000000     0.416666667     0.000000000
     0.250000000     0.458333333     0.041666667
     0.291666667     0.416666667     0.041666667
     0.291666667     0.458333333     0.000000000
     0.250000000     0.458333333     0.125000000
     0.291666667     0.458333333     0.083333333
     0.250000000     0.416666667     0.166666667
     0.291666667     0.416666667     0.208333333
     0.291666667     0.458333333     0.166666667
     0.250000000     0.458333333     0.291666667
     0.291666667     0.416666667     0.291666667
     0.291666667     0.458333333     0.250000000
     0.250000000     0.458333333     0.375000000
     0.291666667     0.416666667     0.375000000
     0.291666667     0.458333333     0.333333333
     0.250000000     0.416666667     0.416666667
     0.291666667     0.416666667     0.458333333
     0.291666667     0.458333333     0.416666667
     0.250000000     0.416666667     0.500000000
     0.250000000     0.458333333     0.541666667
     0.291666667     0.458333333     0.500000000
     0.291666667     0.458333333     0.583333333
     0.291666667     0.416666667     0.708333333
     0.291666667     0.458333333     0.666666667
     0.250000000     0.416666667     0.750000000
     0.250000000     0.458333333     0.791666667
     0.291666667     0.416666667     0.791666667
     0.291666667     0.458333333     0.750000000
     0.250000000     0.416666667     0.833333333
     0.291666667     0.416666667     0.875000000
     0.291666667     0.458333333     0.833333333
     0.250000000     0.416666667     0.916666667
     0.250000000     0.458333333     0.958333333
     0.291666667     0.416666667     0.958333333
     0.291666667     0.458333333     0.916666667
     0.291666667     0.500000000     0.041666667
     0.291666667     0.541666667     0.000000000
     0.250000000     0.500000000     0.083333333
     0.291666667     0.500000000     0.125000000
     0.250000000     0.500000000     0.166666667
     0.250000000     0.541666667     0.208333333
     0.291666667     0.500000000     0.208333333
     0.291666667     0.541666667     0.166666667
     0.250000000     0.500000000     0.250000000
     0.291666667     0.541666667     0.250000000
     0.250000000     0.500000000     0.333333333
     0.250000000     0.541666667     0.375000000
     0.291666667     0.541666667     0.333333333
     0.250000000     0.500000000     0.416666667
     0.291666667     0.541666667     0.416666667
     0.250000000     0.500000000     0.500000000
     0.250000000     0.541666667     0.541666667
     0.291666667     0.500000000     0.541666667
     0.250000000     0.500000000     0.583333333
     0.250000000     0.541666667     0.625000000
     0.291666667     0.500000000     0.625000000
     0.291666667     0.541666667     0.583333333
     0.250000000     0.500000000     0.666666667
     0.250000000     0.541666667     0.708333333
     0.291666667     0.500000000     0.708333333
     0.291666667     0.541666667     0.666666667
     0.250000000     0.500000000     0.750000000
     0.250000000     0.541666667     0.791666667
     0.291666667     0.500000000     0.791666667
     0.291666667     0.541666667     0.750000000
     0.250000000     0.500000000     0.833333333
     0.250000000     0.541666667     0.875000000
     0.291666667     0.500000000     0.875000000
     0.291666667     0.541666667     0.833333333
     0.250000000     0.500000000     0.916666667
     0.250000000     0.541666667     0.958333333
     0.291666667     0.500000000     0.958333333
     0.291666667     0.541666667     0.916666667
     0.250000000     0.583333333     0.000000000
     0.291666667     0.583333333     0.041666667
     0.291666667     0.625000000     0.000000000
     0.250000000     0.625000000     0.125000000
     0.291666667     0.583333333     0.125000000
     0.291666667     0.625000000     0.083333333
     0.250000000     0.625000000     0.208333333
     0.291666667     0.625000000     0.166666667
     0.250000000     0.583333333     0.250000000
     0.250000000     0.625000000     0.291666667
     0.291666667     0.625000000     0.250000000
     0.250000000     0.583333333     0.333333333
     0.250000000     0.625000000     0.375000000
     0.291666667     0.625000000     0.333333333
     0.250000000     0.583333333     0.416666667
     0.291666667     0.625000000     0.416666667
     0.250000000     0.583333333     0.500000000
     0.250000000     0.625000000     0.541666667
     0.291666667     0.625000000     0.583333333
     0.250000000     0.583333333     0.666666667
     0.250000000     0.625000000     0.708333333
     0.291666667     0.583333333     0.708333333
     0.291666667     0.625000000     0.666666667
     0.250000000     0.583333333     0.750000000
     0.250000000     0.625000000     0.791666667
     0.291666667     0.583333333     0.791666667
     0.250000000     0.583333333     0.833333333
     0.250000000     0.625000000     0.875000000
     0.291666667     0.625000000     0.833333333
     0.250000000     0.583333333     0.916666667
     0.250000000     0.625000000     0.958333333
     0.291666667     0.583333333     0.958333333
     0.291666667     0.625000000     0.916666667
     0.250000000     0.666666667     0.000000000
     0.250000000     0.708333333     0.041666667
     0.291666667     0.666666667     0.041666667
     0.291666667     0.708333333     0.000000000
     0.250000000     0.666666667     0.083333333
     0.250000000     0.708333333     0.125000000
     0.250000000     0.708333333     0.208333333
     0.291666667     0.708333333     0.166666667
     0.250000000     0.666666667     0.250000000
     0.291666667     0.666666667     0.291666667
     0.291666667     0.708333333     0.250000000
     0.250000000     0.666666667     0.333333333
     0.250000000     0.708333333     0.375000000
     0.291666667     0.666666667     0.375000000
     0.291666667     0.708333333     0.333333333
     0.291666667     0.666666667     0.458333333
     0.291666667     0.708333333     0.416666667
     0.291666667     0.666666667     0.541666667
     0.291666667     0.708333333     0.500000000
     0.250000000     0.708333333     0.625000000
     0.291666667     0.708333333     0.583333333
     0.250000000     0.666666667     0.666666667
     0.250000000     0.708333333     0.708333333
     0.291666667     0.666666667     0.708333333
     0.291666667     0.708333333     0.666666667
     0.250000000     0.708333333     0.791666667
     0.291666667     0.708333333     0.750000000
     0.250000000     0.666666667     0.833333333
     0.291666667     0.708333333     0.833333333
     0.250000000     0.666666667     0.916666667
     0.250000000     0.708333333     0.958333333
     0.291666667     0.666666667     0.958333333
     0.291666667     0.708333333     0.916666667
     0.250000000     0.750000000     0.000000000
     0.250000000     0.791666667     0.041666667
     0.291666667     0.750000000     0.041666667
     0.291666667     0.791666667     0.000000000
     0.250000000     0.750000000     0.083333333
     0.250000000     0.791666667     0.125000000
     0.291666667     0.791666667     0.083333333
     0.250000000     0.750000000     0.166666667
     0.250000000     0.791666667     0.208333333
     0.291666667     0.750000000     0.208333333
     0.250000000     0.750000000     0.250000000
     0.250000000     0.791666667     0.291666667
     0.291666667     0.791666667     0.250000000
     0.291666667     0.750000000     0.375000000
     0.291666667     0.791666667     0.333333333
     0.250000000     0.791666667     0.458333333
     0.291666667     0.791666667     0.416666667
     0.250000000     0.750000000     0.500000000
     0.250000000     0.791666667     0.541666667
     0.291666667     0.750000000     0.541666667
     0.291666667     0.791666667     0.500000000
     0.250000000     0.750000000     0.583333333
     0.250000000     0.791666667     0.625000000
     0.291666667     0.791666667     0.583333333
     0.250000000     0.750000000     0.666666667
     0.250000000     0.791666667     0.708333333
     0.291666667     0.750000000     0.708333333
     0.291666667     0.791666667     0.666666667
     0.250000000     0.750000000     0.750000000
     0.250000000     0.791666667     0.791666667
     0.291666667     0.750000000     0.791666667
     0.291666667     0.791666667     0.750000000
     0.250000000     0.750000000     0.833333333
     0.250000000     0.791666667     0.875000000
     0.291666667     0.750000000     0.875000000
     0.291666667     0.791666667     0.833333333
     0.250000000     0.750000000     0.916666667
     0.250000000     0.791666667     0.958333333
     0.291666667     0.750000000     0.958333333
     0.291666667     0.791666667     0.916666667
     0.250000000     0.833333333     0.000000000
     0.250000000     0.875000000     0.041666667
     0.291666667     0.833333333     0.041666667
     0.291666667     0.875000000     0.000000000
     0.250000000     0.833333333     0.083333333
     0.291666667     0.875000000     0.083333333
     0.250000000     0.833333333     0.166666667
     0.250000000     0.875000000     0.208333333
     0.291666667     0.833333333     0.208333333
     0.291666667     0.875000000     0.166666667
     0.250000000     0.875000000     0.291666667
     0.250000000     0.833333333     0.333333333
     0.250000000     0.875000000     0.375000000
     0.250000000     0.833333333     0.416666667
     0.291666667     0.875000000     0.416666667
     0.250000000     0.833333333     0.500000000
     0.291666667     0.875000000     0.500000000
     0.250000000     0.833333333     0.583333333
     0.250000000     0.875000000     0.625000000
     0.291666667     0.833333333     0.625000000
     0.291666667     0.875000000     0.583333333
     0.291666667     0.833333333     0.708333333
     0.291666667     0.875000000     0.666666667
     0.250000000     0.875000000     0.791666667
     0.291666667     0.833333333     0.791666667
     0.291666667     0.875000000     0.750000000
     0.250000000     0.875000000     0.875000000
     0.291666667     0.833333333     0.875000000
     0.291666667     0.875000000     0.833333333
     0.250000000     0.833333333     0.916666667
     0.291666667     0.833333333     0.958333333
     0.291666667     0.875000000     0.916666667
     0.250000000     0.916666667     0.000000000
     0.250000000     0.958333333     0.041666667
     0.291666667     0.958333333     0.000000000
     0.250000000     0.916666667     0.083333333
     0.250000000     0.958333333     0.125000000
     0.291666667     0.916666667     0.125000000
     0.291666667     0.958333333     0.083333333
     0.250000000     0.916666667     0.166666667
     0.250000000     0.958333333     0.208333333
     0.250000000     0.916666667     0.250000000
     0.250000000     0.958333333     0.291666667
     0.291666667     0.916666667     0.291666667
     0.291666667     0.958333333     0.250000000
     0.250000000     0.916666667     0.333333333
     0.250000000     0.958333333     0.375000000
     0.291666667     0.958333333     0.333333333
     0.250000000     0.916666667     0.416666667
     0.250000000     0.958333333     0.458333333
     0.291666667     0.958333333     0.416666667
     0.250000000     0.916666667     0.500000000
     0.291666667     0.916666667     0.541666667
     0.250000000     0.916666667     0.583333333
     0.250000000     0.958333333     0.625000000
     0.291666667     0.958333333     0.583333333
     0.250000000     0.916666667     0.666666667
     0.291666667     0.916666667     0.708333333
     0.291666667     0.958333333     0.666666667
     0.291666667     0.916666667     0.791666667
     0.250000000     0.958333333     0.875000000
     0.291666667     0.958333333     0.833333333
     0.250000000     0.958333333     0.958333333
     0.291666667     0.916666667     0.958333333
     0.333333333     0.000000000     0.000000000
     0.333333333     0.041666667     0.041666667
     0.375000000     0.000000000     0.041666667
     0.375000000     0.041666667     0.000000000
     0.333333333     0.000000000     0.083333333
     0.333333333     0.041666667     0.125000000
     0.375000000     0.000000000     0.125000000
     0.375000000     0.041666667     0.083333333
     0.333333333     0.000000000     0.166666667
     0.333333333     0.041666667     0.208333333
     0.375000000     0.000000000     0.208333333
     0.375000000     0.041666667     0.166666667
     0.333333333     0.000000000     0.250000000
     0.375000000     0.000000000     0.291666667
     0.375000000     0.041666667     0.250000000
     0.375000000     0.000000000     0.375000000
     0.333333333     0.000000000     0.416666667
     0.333333333     0.041666667     0.458333333
     0.375000000     0.000000000     0.458333333
     0.375000000     0.041666667     0.416666667
     0.333333333     0.000000000     0.500000000
     0.333333333     0.041666667     0.541666667
     0.375000000     0.000000000     0.541666667
     0.375000000     0.041666667     0.500000000
     0.333333333     0.000000000     0.583333333
     0.333333333     0.041666667     0.625000000
     0.375000000     0.000000000     0.625000000
     0.333333333     0.000000000     0.666666667
     0.333333333     0.041666667     0.708333333
     0.375000000     0.000000000     0.708333333
     0.375000000     0.041666667     0.666666667
     0.333333333     0.041666667     0.791666667
     0.375000000     0.000000000     0.791666667
     0.375000000     0.041666667     0.750000000
     0.333333333     0.000000000     0.833333333
     0.333333333     0.041666667     0.875000000
     0.375000000     0.041666667     0.833333333
     0.333333333     0.000000000     0.916666667
     0.375000000     0.000000000     0.958333333
     0.375000000     0.041666667     0.916666667
     0.333333333     0.083333333     0.000000000
     0.375000000     0.083333333     0.041666667
     0.375000000     0.125000000     0.000000000
     0.333333333     0.083333333     0.083333333
     0.333333333     0.125000000     0.125000000
     0.375000000     0.083333333     0.125000000
     0.333333333     0.083333333     0.166666667
     0.333333333     0.125000000     0.208333333
     0.375000000     0.083333333     0.208333333
     0.375000000     0.125000000     0.166666667
     0.333333333     0.083333333     0.250000000
     0.333333333     0.125000000     0.291666667
     0.375000000     0.125000000     0.250000000
     0.333333333     0.083333333     0.333333333
     0.333333333     0.125000000     0.375000000
     0.375000000     0.125000000     0.333333333
     0.333333333     0.083333333     0.416666667
     0.333333333     0.125000000     0.458333333
     0.375000000     0.083333333     0.458333333
     0.375000000     0.125000000     0.416666667
     0.333333333     0.125000000     0.541666667
     0.375000000     0.083333333     0.541666667
     0.333333333     0.083333333     0.583333333
     0.375000000     0.083333333     0.625000000
     0.333333333     0.125000000     0.708333333
     0.333333333     0.083333333     0.750000000
     0.375000000     0.083333333     0.791666667
     0.375000000     0.125000000     0.750000000
     0.333333333     0.125000000     0.875000000
     0.375000000     0.083333333     0.875000000
     0.333333333     0.125000000     0.958333333
     0.375000000     0.083333333     0.958333333
     0.375000000     0.125000000     0.916666667
     0.333333333     0.166666667     0.000000000
     0.333333333     0.208333333     0.041666667
     0.375000000     0.166666667     0.041666667
     0.375000000     0.208333333     0.000000000
     0.333333333     0.208333333     0.125000000
     0.375000000     0.166666667     0.125000000
     0.375000000     0.208333333     0.083333333
     0.333333333     0.166666667     0.166666667
     0.375000000     0.166666667     0.208333333
     0.375000000     0.208333333     0.166666667
     0.333333333     0.166666667     0.250000000
     0.333333333     0.208333333     0.291666667
     0.375000000     0.208333333     0.250000000
     0.333333333     0.166666667     0.333333333
     0.333333333     0.208333333     0.375000000
     0.375000000     0.166666667     0.375000000
     0.375000000     0.208333333     0.333333333
     0.375000000     0.166666667     0.458333333
     0.375000000     0.208333333     0.416666667
     0.333333333     0.166666667     0.500000000
     0.333333333     0.208333333     0.541666667
     0.375000000     0.166666667     0.541666667
     0.333333333     0.208333333     0.625000000
     0.375000000     0.166666667     0.625000000
     0.375000000     0.208333333     0.583333333
     0.333333333     0.166666667     0.666666667
     0.333333333     0.208333333     0.708333333
     0.375000000     0.166666667     0.708333333
     0.375000000     0.208333333     0.666666667
     0.333333333     0.208333333     0.791666667
     0.375000000     0.166666667     0.791666667
     0.375000000     0.208333333     0.750000000
     0.333333333     0.166666667     0.833333333
     0.333333333     0.208333333     0.875000000
     0.375000000     0.166666667     0.875000000
     0.333333333     0.166666667     0.916666667
     0.333333333     0.208333333     0.958333333
     0.375000000     0.166666667     0.958333333
     0.333333333     0.250000000     0.000000000
     0.333333333     0.291666667     0.041666667
     0.375000000     0.250000000     0.041666667
     0.375000000     0.291666667     0.000000000
     0.333333333     0.291666667     0.125000000
     0.375000000     0.250000000     0.125000000
     0.375000000     0.291666667     0.083333333
     0.333333333     0.291666667     0.208333333
     0.375000000     0.291666667     0.166666667
     0.333333333     0.250000000     0.250000000
     0.333333333     0.291666667     0.291666667
     0.375000000     0.250000000     0.291666667
     0.375000000     0.291666667     0.250000000
     0.333333333     0.250000000     0.333333333
     0.375000000     0.250000000     0.375000000
     0.375000000     0.291666667     0.333333333
     0.333333333     0.250000000     0.416666667
     0.333333333     0.291666667     0.458333333
     0.375000000     0.250000000     0.458333333
     0.375000000     0.291666667     0.416666667
     0.333333333     0.250000000     0.500000000
     0.333333333     0.291666667     0.541666667
     0.375000000     0.250000000     0.541666667
     0.333333333     0.250000000     0.583333333
     0.333333333     0.291666667     0.625000000
     0.333333333     0.250000000     0.666666667
     0.375000000     0.250000000     0.708333333
     0.375000000     0.291666667     0.666666667
     0.333333333     0.250000000     0.750000000
     0.375000000     0.250000000     0.791666667
     0.375000000     0.291666667     0.750000000
     0.333333333     0.250000000     0.833333333
     0.333333333     0.291666667     0.875000000
     0.375000000     0.250000000     0.875000000
     0.375000000     0.291666667     0.833333333
     0.333333333     0.291666667     0.958333333
     0.375000000     0.291666667     0.916666667
     0.333333333     0.333333333     0.000000000
     0.333333333     0.375000000     0.041666667
     0.375000000     0.333333333     0.041666667
     0.333333333     0.333333333     0.083333333
     0.333333333     0.375000000     0.125000000
     0.333333333     0.333333333     0.166666667
     0.333333333     0.375000000     0.208333333
     0.375000000     0.333333333     0.208333333
     0.375000000     0.375000000     0.166666667
     0.333333333     0.333333333     0.250000000
     0.333333333     0.375000000     0.291666667
     0.375000000     0.333333333     0.291666667
     0.375000000     0.375000000     0.250000000
     0.333333333     0.375000000     0.375000000
     0.375000000     0.333333333     0.375000000
     0.375000000     0.375000000     0.333333333
     0.333333333     0.333333333     0.416666667
     0.333333333     0.375000000     0.458333333
     0.375000000     0.333333333     0.458333333
     0.375000000     0.375000000     0.416666667
     0.333333333     0.333333333     0.500000000
     0.333333333     0.375000000     0.541666667
     0.375000000     0.333333333     0.541666667
     0.375000000     0.375000000     0.500000000
     0.333333333     0.333333333     0.583333333
     0.333333333     0.375000000     0.625000000
     0.375000000     0.333333333     0.625000000
     0.333333333     0.333333333     0.666666667
     0.333333333     0.375000000     0.708333333
     0.375000000     0.333333333     0.708333333
     0.333333333     0.333333333     0.750000000
     0.375000000     0.333333333     0.791666667
     0.375000000     0.375000000     0.750000000
     0.333333333     0.333333333     0.833333333
     0.333333333     0.375000000     0.875000000
     0.375000000     0.333333333     0.875000000
     0.375000000     0.375000000     0.833333333
     0.333333333     0.333333333     0.916666667
     0.333333333     0.375000000     0.958333333
     0.375000000     0.333333333     0.958333333
     0.375000000     0.375000000     0.916666667
     0.333333333     0.416666667     0.000000000
     0.333333333     0.458333333     0.041666667
     0.375000000     0.416666667     0.041666667
     0.375000000     0.458333333     0.000000000
     0.333333333     0.416666667     0.083333333
     0.375000000     0.416666667     0.125000000
     0.375000000     0.458333333     0.083333333
     0.333333333     0.416666667     0.166666667
     0.375000000     0.416666667     0.208333333
     0.375000000     0.458333333     0.166666667
     0.333333333     0.416666667     0.250000000
     0.333333333     0.458333333     0.291666667
     0.375000000     0.416666667     0.291666667
     0.375000000     0.458333333     0.250000000
     0.333333333     0.416666667     0.333333333
     0.375000000     0.416666667     0.375000000
     0.375000000     0.458333333     0.333333333
     0.333333333     0.458333333     0.458333333
     0.375000000     0.416666667     0.458333333
     0.333333333     0.416666667     0.500000000
     0.333333333     0.458333333     0.541666667
     0.375000000     0.416666667     0.541666667
     0.333333333     0.458333333     0.625000000
     0.375000000     0.416666667     0.625000000
     0.333333333     0.416666667     0.666666667
     0.375000000     0.416666667     0.708333333
     0.333333333     0.416666667     0.750000000
     0.333333333     0.458333333     0.791666667
     0.375000000     0.416666667     0.791666667
     0.333333333     0.416666667     0.833333333
     0.333333333     0.458333333     0.875000000
     0.375000000     0.416666667     0.875000000
     0.333333333     0.416666667     0.916666667
     0.375000000     0.416666667     0.958333333
     0.375000000     0.458333333     0.916666667
     0.333333333     0.500000000     0.000000000
     0.375000000     0.541666667     0.000000000
     0.333333333     0.500000000     0.083333333
     0.375000000     0.541666667     0.083333333
     0.333333333     0.500000000     0.166666667
     0.333333333     0.541666667     0.208333333
     0.375000000     0.500000000     0.208333333
     0.333333333     0.500000000     0.250000000
     0.375000000     0.500000000     0.291666667
     0.333333333     0.500000000     0.333333333
     0.333333333     0.541666667     0.375000000
     0.375000000     0.500000000     0.375000000
     0.375000000     0.541666667     0.333333333
     0.333333333     0.500000000     0.416666667
     0.333333333     0.541666667     0.458333333
     0.375000000     0.500000000     0.458333333
     0.375000000     0.541666667     0.416666667
     0.333333333     0.541666667     0.541666667
     0.375000000     0.500000000     0.541666667
     0.375000000     0.541666667     0.500000000
     0.333333333     0.541666667     0.625000000
     0.333333333     0.500000000     0.666666667
     0.333333333     0.541666667     0.708333333
     0.375000000     0.500000000     0.708333333
     0.333333333     0.500000000     0.750000000
     0.375000000     0.500000000     0.791666667
     0.333333333     0.500000000     0.833333333
     0.333333333     0.541666667     0.875000000
     0.375000000     0.500000000     0.875000000
     0.375000000     0.541666667     0.833333333
     0.333333333     0.541666667     0.958333333
     0.333333333     0.583333333     0.000000000
     0.333333333     0.625000000     0.041666667
     0.375000000     0.625000000     0.000000000
     0.333333333     0.583333333     0.083333333
     0.333333333     0.625000000     0.125000000
     0.333333333     0.583333333     0.166666667
     0.333333333     0.625000000     0.208333333
     0.375000000     0.583333333     0.208333333
     0.375000000     0.625000000     0.250000000
     0.333333333     0.625000000     0.375000000
     0.375000000     0.625000000     0.333333333
     0.333333333     0.625000000     0.458333333
     0.375000000     0.583333333     0.458333333
     0.333333333     0.583333333     0.500000000
     0.333333333     0.625000000     0.541666667
     0.375000000     0.583333333     0.541666667
     0.375000000     0.625000000     0.500000000
     0.333333333     0.625000000     0.625000000
     0.375000000     0.583333333     0.625000000
     0.375000000     0.625000000     0.583333333
     0.333333333     0.625000000     0.708333333
     0.375000000     0.583333333     0.708333333
     0.375000000     0.625000000     0.666666667
     0.333333333     0.583333333     0.750000000
     0.375000000     0.583333333     0.791666667
     0.375000000     0.625000000     0.750000000
     0.333333333     0.583333333     0.833333333
     0.375000000     0.625000000     0.833333333
     0.333333333     0.583333333     0.916666667
     0.333333333     0.625000000     0.958333333
     0.375000000     0.583333333     0.958333333
     0.375000000     0.625000000     0.916666667
     0.333333333     0.666666667     0.000000000
     0.375000000     0.666666667     0.041666667
     0.375000000     0.708333333     0.000000000
     0.333333333     0.708333333     0.125000000
     0.375000000     0.708333333     0.083333333
     0.333333333     0.666666667     0.166666667
     0.333333333     0.708333333     0.208333333
     0.375000000     0.666666667     0.208333333
     0.375000000     0.708333333     0.166666667
     0.333333333     0.666666667     0.250000000
     0.333333333     0.708333333     0.291666667
     0.375000000     0.666666667     0.291666667
     0.375000000     0.708333333     0.250000000
     0.333333333     0.666666667     0.333333333
     0.375000000     0.666666667     0.375000000
     0.375000000     0.708333333     0.333333333
     0.333333333     0.708333333     0.458333333
     0.375000000     0.666666667     0.458333333
     0.375000000     0.708333333     0.416666667
     0.333333333     0.666666667     0.500000000
     0.333333333     0.708333333     0.541666667
     0.375000000     0.666666667     0.541666667
     0.333333333     0.708333333     0.625000000
     0.375000000     0.708333333     0.583333333
     0.333333333     0.666666667     0.666666667
     0.375000000     0.666666667     0.708333333
     0.333333333     0.666666667     0.750000000
     0.375000000     0.708333333     0.750000000
     0.333333333     0.666666667     0.833333333
     0.333333333     0.708333333     0.875000000
     0.375000000     0.666666667     0.875000000
     0.333333333     0.666666667     0.916666667
     0.375000000     0.708333333     0.916666667
     0.333333333     0.750000000     0.000000000
     0.333333333     0.791666667     0.041666667
     0.375000000     0.750000000     0.041666667
     0.375000000     0.791666667     0.000000000
     0.333333333     0.750000000     0.083333333
     0.375000000     0.750000000     0.125000000
     0.375000000     0.791666667     0.083333333
     0.375000000     0.750000000     0.208333333
     0.375000000     0.791666667     0.166666667
     0.375000000     0.750000000     0.291666667
     0.375000000     0.791666667     0.250000000
     0.333333333     0.750000000     0.333333333
     0.333333333     0.791666667     0.375000000
     0.333333333     0.750000000     0.416666667
     0.333333333     0.791666667     0.458333333
     0.375000000     0.750000000     0.458333333
     0.375000000     0.791666667     0.416666667
     0.333333333     0.791666667     0.541666667
     0.375000000     0.750000000     0.541666667
     0.375000000     0.791666667     0.500000000
     0.333333333     0.791666667     0.625000000
     0.375000000     0.750000000     0.625000000
     0.333333333     0.791666667     0.708333333
     0.375000000     0.750000000     0.708333333
     0.333333333     0.750000000     0.750000000
     0.333333333     0.791666667     0.791666667
     0.375000000     0.750000000     0.791666667
     0.375000000     0.791666667     0.750000000
     0.333333333     0.750000000     0.833333333
     0.333333333     0.791666667     0.875000000
     0.375000000     0.791666667     0.833333333
     0.333333333     0.791666667     0.958333333
     0.375000000     0.791666667     0.916666667
     0.333333333     0.833333333     0.000000000
     0.333333333     0.875000000     0.041666667
     0.333333333     0.833333333     0.083333333
     0.333333333     0.875000000     0.125000000
     0.375000000     0.833333333     0.125000000
     0.375000000     0.875000000     0.083333333
     0.333333333     0.875000000     0.208333333
     0.375000000     0.833333333     0.208333333
     0.375000000     0.875000000     0.166666667
     0.375000000     0.875000000     0.250000000
     0.333333333     0.833333333     0.333333333
     0.333333333     0.875000000     0.375000000
     0.375000000     0.833333333     0.375000000
     0.333333333     0.833333333     0.416666667
     0.333333333     0.875000000     0.458333333
     0.375000000     0.833333333     0.458333333
     0.375000000     0.875000000     0.416666667
     0.333333333     0.833333333     0.500000000
     0.333333333     0.875000000     0.541666667
     0.375000000     0.833333333     0.541666667
     0.333333333     0.833333333     0.583333333
     0.375000000     0.875000000     0.583333333
     0.333333333     0.875000000     0.708333333
     0.333333333     0.833333333     0.750000000
     0.333333333     0.875000000     0.791666667
     0.333333333     0.833333333     0.833333333
     0.333333333     0.875000000     0.875000000
     0.375000000     0.833333333     0.875000000
     0.333333333     0.833333333     0.916666667
     0.333333333     0.875000000     0.958333333
     0.375000000     0.875000000     0.916666667
     0.333333333     0.916666667     0.000000000
     0.333333333     0.958333333     0.041666667
     0.375000000     0.916666667     0.041666667
     0.375000000     0.958333333     0.000000000
     0.333333333     0.916666667     0.083333333
     0.333333333     0.958333333     0.125000000
     0.375000000     0.916666667     0.125000000
     0.333333333     0.958333333     0.208333333
     0.375000000     0.916666667     0.208333333
     0.375000000     0.958333333     0.166666667
     0.333333333     0.916666667     0.250000000
     0.333333333     0.958333333     0.291666667
     0.375000000     0.916666667     0.291666667
     0.333333333     0.958333333     0.375000000
     0.375000000     0.916666667     0.375000000
     0.375000000     0.958333333     0.333333333
     0.333333333     0.958333333     0.458333333
     0.375000000     0.916666667     0.458333333
     0.375000000     0.958333333     0.416666667
     0.333333333     0.916666667     0.500000000
     0.375000000     0.916666667     0.541666667
     0.375000000     0.958333333     0.500000000
     0.333333333     0.958333333     0.625000000
     0.375000000     0.916666667     0.625000000
     0.375000000     0.958333333     0.583333333
     0.333333333     0.916666667     0.666666667
     0.333333333     0.958333333     0.708333333
     0.375000000     0.958333333     0.666666667
     0.333333333     0.916666667     0.750000000
     0.333333333     0.958333333     0.791666667
     0.375000000     0.916666667     0.791666667
     0.375000000     0.958333333     0.750000000
     0.333333333     0.916666667     0.833333333
     0.333333333     0.958333333     0.875000000
     0.375000000     0.916666667     0.875000000
     0.375000000     0.958333333     0.833333333
     0.333333333     0.916666667     0.916666667
     0.333333333     0.958333333     0.958333333
     0.375000000     0.916666667     0.958333333
     0.375000000     0.958333333     0.916666667
     0.416666667     0.000000000     0.000000000
     0.416666667     0.041666667     0.041666667
     0.416666667     0.000000000     0.083333333
     0.416666667     0.041666667     0.125000000
     0.458333333     0.000000000     0.125000000
     0.458333333     0.041666667     0.083333333
     0.416666667     0.041666667     0.208333333
     0.458333333     0.000000000     0.208333333
     0.416666667     0.000000000     0.250000000
     0.458333333     0.000000000     0.291666667
     0.416666667     0.041666667     0.375000000
     0.458333333     0.041666667     0.333333333
     0.458333333     0.041666667     0.416666667
     0.416666667     0.000000000     0.500000000
     0.416666667     0.041666667     0.541666667
     0.458333333     0.000000000     0.541666667
     0.458333333     0.041666667     0.500000000
     0.416666667     0.000000000     0.583333333
     0.416666667     0.041666667     0.625000000
     0.458333333     0.000000000     0.625000000
     0.416666667     0.000000000     0.666666667
     0.416666667     0.041666667     0.708333333
     0.458333333     0.000000000     0.708333333
     0.458333333     0.041666667     0.666666667
     0.416666667     0.041666667     0.791666667
     0.458333333     0.000000000     0.791666667
     0.458333333     0.041666667     0.750000000
     0.416666667     0.000000000     0.833333333
     0.416666667     0.041666667     0.875000000
     0.458333333     0.000000000     0.875000000
     0.458333333     0.041666667     0.833333333
     0.416666667     0.000000000     0.916666667
     0.416666667     0.041666667     0.958333333
     0.458333333     0.000000000     0.958333333
     0.416666667     0.083333333     0.000000000
     0.416666667     0.125000000     0.041666667
     0.458333333     0.125000000     0.000000000
     0.416666667     0.125000000     0.125000000
     0.416666667     0.083333333     0.166666667
     0.416666667     0.125000000     0.208333333
     0.458333333     0.083333333     0.208333333
     0.458333333     0.125000000     0.166666667
     0.458333333     0.083333333     0.291666667
     0.458333333     0.125000000     0.250000000
     0.416666667     0.083333333     0.333333333
     0.416666667     0.083333333     0.416666667
     0.416666667     0.125000000     0.458333333
     0.458333333     0.083333333     0.458333333
     0.458333333     0.125000000     0.416666667
     0.458333333     0.083333333     0.541666667
     0.458333333     0.125000000     0.500000000
     0.416666667     0.083333333     0.583333333
     0.416666667     0.125000000     0.625000000
     0.458333333     0.083333333     0.625000000
     0.458333333     0.125000000     0.583333333
     0.416666667     0.083333333     0.666666667
     0.416666667     0.125000000     0.708333333
     0.458333333     0.083333333     0.708333333
     0.458333333     0.125000000     0.666666667
     0.416666667     0.083333333     0.750000000
     0.416666667     0.125000000     0.791666667
     0.458333333     0.083333333     0.791666667
     0.416666667     0.125000000     0.875000000
     0.458333333     0.083333333     0.875000000
     0.458333333     0.125000000     0.833333333
     0.416666667     0.083333333     0.916666667
     0.416666667     0.125000000     0.958333333
     0.458333333     0.083333333     0.958333333
     0.458333333     0.125000000     0.916666667
     0.416666667     0.166666667     0.000000000
     0.416666667     0.208333333     0.041666667
     0.458333333     0.208333333     0.000000000
     0.458333333     0.166666667     0.125000000
     0.458333333     0.208333333     0.083333333
     0.416666667     0.166666667     0.166666667
     0.416666667     0.208333333     0.208333333
     0.458333333     0.166666667     0.208333333
     0.458333333     0.208333333     0.250000000
     0.416666667     0.166666667     0.333333333
     0.416666667     0.208333333     0.375000000
     0.458333333     0.166666667     0.375000000
     0.458333333     0.208333333     0.333333333
     0.416666667     0.208333333     0.458333333
     0.416666667     0.166666667     0.500000000
     0.458333333     0.166666667     0.541666667
     0.416666667     0.166666667     0.583333333
     0.416666667     0.208333333     0.625000000
     0.458333333     0.208333333     0.583333333
     0.416666667     0.166666667     0.666666667
     0.458333333     0.208333333     0.666666667
     0.416666667     0.208333333     0.791666667
     0.458333333     0.166666667     0.791666667
     0.458333333     0.208333333     0.750000000
     0.416666667     0.166666667     0.833333333
     0.416666667     0.208333333     0.875000000
     0.458333333     0.166666667     0.875000000
     0.416666667     0.166666667     0.916666667
     0.416666667     0.208333333     0.958333333
     0.458333333     0.166666667     0.958333333
     0.458333333     0.208333333     0.916666667
     0.416666667     0.250000000     0.000000000
     0.416666667     0.291666667     0.041666667
     0.458333333     0.250000000     0.041666667
     0.416666667     0.250000000     0.083333333
     0.416666667     0.291666667     0.125000000
     0.458333333     0.250000000     0.125000000
     0.458333333     0.291666667     0.083333333
     0.416666667     0.250000000     0.166666667
     0.416666667     0.291666667     0.208333333
     0.458333333     0.250000000     0.208333333
     0.458333333     0.291666667     0.166666667
     0.416666667     0.250000000     0.250000000
     0.416666667     0.291666667     0.291666667
     0.458333333     0.250000000     0.291666667
     0.458333333     0.291666667     0.250000000
     0.416666667     0.250000000     0.333333333
     0.416666667     0.250000000     0.416666667
     0.416666667     0.291666667     0.458333333
     0.458333333     0.250000000     0.458333333
     0.458333333     0.291666667     0.416666667
     0.416666667     0.250000000     0.500000000
     0.416666667     0.291666667     0.541666667
     0.458333333     0.291666667     0.500000000
     0.416666667     0.250000000     0.583333333
     0.416666667     0.291666667     0.625000000
     0.458333333     0.250000000     0.625000000
     0.458333333     0.291666667     0.583333333
     0.416666667     0.250000000     0.666666667
     0.416666667     0.291666667     0.708333333
     0.458333333     0.291666667     0.666666667
     0.458333333     0.250000000     0.791666667
     0.458333333     0.291666667     0.750000000
     0.416666667     0.250000000     0.833333333
     0.458333333     0.250000000     0.875000000
     0.416666667     0.250000000     0.916666667
     0.416666667     0.291666667     0.958333333
     0.458333333     0.250000000     0.958333333
     0.458333333     0.291666667     0.916666667
     0.416666667     0.333333333     0.000000000
     0.416666667     0.375000000     0.041666667
     0.458333333     0.375000000     0.000000000
     0.416666667     0.333333333     0.083333333
     0.458333333     0.375000000     0.083333333
     0.416666667     0.333333333     0.166666667
     0.416666667     0.375000000     0.208333333
     0.416666667     0.333333333     0.250000000
     0.458333333     0.375000000     0.250000000
     0.416666667     0.333333333     0.333333333
     0.458333333     0.333333333     0.375000000
     0.458333333     0.375000000     0.333333333
     0.416666667     0.333333333     0.416666667
     0.416666667     0.375000000     0.458333333
     0.458333333     0.333333333     0.458333333
     0.416666667     0.333333333     0.500000000
     0.416666667     0.375000000     0.541666667
     0.458333333     0.333333333     0.541666667
     0.416666667     0.333333333     0.583333333
     0.416666667     0.375000000     0.625000000
     0.458333333     0.333333333     0.625000000
     0.458333333     0.375000000     0.583333333
     0.416666667     0.375000000     0.708333333
     0.458333333     0.333333333     0.708333333
     0.458333333     0.375000000     0.666666667
     0.416666667     0.333333333     0.750000000
     0.416666667     0.375000000     0.791666667
     0.458333333     0.333333333     0.791666667
     0.458333333     0.375000000     0.750000000
     0.416666667     0.375000000     0.875000000
     0.458333333     0.375000000     0.833333333
     0.416666667     0.333333333     0.916666667
     0.416666667     0.375000000     0.958333333
     0.458333333     0.333333333     0.958333333
     0.458333333     0.375000000     0.916666667
     0.416666667     0.416666667     0.000000000
     0.416666667     0.458333333     0.041666667
     0.458333333     0.416666667     0.041666667
     0.416666667     0.416666667     0.083333333
     0.416666667     0.458333333     0.125000000
     0.458333333     0.416666667     0.125000000
     0.458333333     0.458333333     0.083333333
     0.416666667     0.416666667     0.166666667
     0.416666667     0.458333333     0.208333333
     0.458333333     0.416666667     0.208333333
     0.416666667     0.416666667     0.250000000
     0.458333333     0.416666667     0.291666667
     0.458333333     0.416666667     0.375000000
     0.458333333     0.458333333     0.333333333
     0.416666667     0.458333333     0.458333333
     0.458333333     0.416666667     0.458333333
     0.458333333     0.458333333     0.416666667
     0.416666667     0.416666667     0.500000000
     0.416666667     0.458333333     0.541666667
     0.458333333     0.416666667     0.541666667
     0.458333333     0.458333333     0.500000000
     0.416666667     0.416666667     0.583333333
     0.458333333     0.416666667     0.625000000
     0.458333333     0.458333333     0.583333333
     0.416666667     0.416666667     0.666666667
     0.458333333     0.416666667     0.708333333
     0.416666667     0.416666667     0.750000000
     0.458333333     0.416666667     0.791666667
     0.458333333     0.458333333     0.750000000
     0.416666667     0.416666667     0.833333333
     0.416666667     0.458333333     0.875000000
     0.458333333     0.416666667     0.875000000
     0.458333333     0.458333333     0.833333333
     0.416666667     0.416666667     0.916666667
     0.416666667     0.458333333     0.958333333
     0.458333333     0.458333333     0.916666667
     0.416666667     0.500000000     0.000000000
     0.416666667     0.541666667     0.041666667
     0.458333333     0.500000000     0.041666667
     0.458333333     0.541666667     0.000000000
     0.416666667     0.500000000     0.083333333
     0.458333333     0.541666667     0.083333333
     0.416666667     0.541666667     0.208333333
     0.458333333     0.500000000     0.208333333
     0.458333333     0.541666667     0.166666667
     0.416666667     0.500000000     0.250000000
     0.416666667     0.541666667     0.291666667
     0.458333333     0.500000000     0.291666667
     0.416666667     0.500000000     0.333333333
     0.458333333     0.541666667     0.333333333
     0.416666667     0.500000000     0.416666667
     0.416666667     0.541666667     0.458333333
     0.458333333     0.500000000     0.458333333
     0.458333333     0.541666667     0.416666667
     0.416666667     0.541666667     0.541666667
     0.458333333     0.500000000     0.541666667
     0.458333333     0.541666667     0.500000000
     0.416666667     0.500000000     0.583333333
     0.416666667     0.541666667     0.625000000
     0.458333333     0.500000000     0.625000000
     0.416666667     0.541666667     0.708333333
     0.458333333     0.500000000     0.708333333
     0.416666667     0.500000000     0.750000000
     0.416666667     0.541666667     0.791666667
     0.458333333     0.500000000     0.791666667
     0.416666667     0.500000000     0.833333333
     0.458333333     0.541666667     0.833333333
     0.416666667     0.500000000     0.916666667
     0.416666667     0.541666667     0.958333333
     0.416666667     0.583333333     0.000000000
     0.458333333     0.625000000     0.000000000
     0.416666667     0.625000000     0.125000000
     0.458333333     0.583333333     0.125000000
     0.416666667     0.583333333     0.166666667
     0.458333333     0.625000000     0.166666667
     0.416666667     0.583333333     0.250000000
     0.416666667     0.625000000     0.291666667
     0.458333333     0.583333333     0.291666667
     0.458333333     0.625000000     0.250000000
     0.416666667     0.583333333     0.333333333
     0.416666667     0.625000000     0.375000000
     0.458333333     0.583333333     0.375000000
     0.416666667     0.583333333     0.416666667
     0.416666667     0.625000000     0.458333333
     0.458333333     0.583333333     0.458333333
     0.458333333     0.625000000     0.416666667
     0.458333333     0.583333333     0.541666667
     0.458333333     0.625000000     0.500000000
     0.416666667     0.625000000     0.625000000
     0.458333333     0.583333333     0.625000000
     0.458333333     0.625000000     0.583333333
     0.416666667     0.583333333     0.666666667
     0.416666667     0.625000000     0.708333333
     0.458333333     0.625000000     0.666666667
     0.416666667     0.583333333     0.833333333
     0.416666667     0.583333333     0.916666667
     0.458333333     0.625000000     0.916666667
     0.416666667     0.666666667     0.000000000
     0.416666667     0.708333333     0.041666667
     0.458333333     0.666666667     0.041666667
     0.458333333     0.708333333     0.000000000
     0.416666667     0.666666667     0.083333333
     0.458333333     0.666666667     0.125000000
     0.458333333     0.708333333     0.083333333
     0.416666667     0.666666667     0.166666667
     0.416666667     0.708333333     0.208333333
     0.458333333     0.708333333     0.166666667
     0.416666667     0.666666667     0.250000000
     0.458333333     0.708333333     0.250000000
     0.416666667     0.666666667     0.333333333
     0.416666667     0.708333333     0.375000000
     0.458333333     0.666666667     0.375000000
     0.458333333     0.708333333     0.333333333
     0.416666667     0.666666667     0.416666667
     0.416666667     0.708333333     0.458333333
     0.458333333     0.666666667     0.458333333
     0.458333333     0.708333333     0.416666667
     0.458333333     0.666666667     0.541666667
     0.416666667     0.666666667     0.583333333
     0.416666667     0.708333333     0.625000000
     0.458333333     0.666666667     0.625000000
     0.458333333     0.708333333     0.583333333
     0.416666667     0.708333333     0.708333333
     0.458333333     0.708333333     0.666666667
     0.416666667     0.666666667     0.750000000
     0.416666667     0.708333333     0.791666667
     0.458333333     0.666666667     0.791666667
     0.458333333     0.708333333     0.750000000
     0.416666667     0.708333333     0.958333333
     0.458333333     0.666666667     0.958333333
     0.416666667     0.750000000     0.000000000
     0.416666667     0.791666667     0.041666667
     0.458333333     0.750000000     0.041666667
     0.458333333     0.791666667     0.000000000
     0.416666667     0.750000000     0.083333333
     0.416666667     0.791666667     0.125000000
     0.458333333     0.791666667     0.083333333
     0.416666667     0.750000000     0.166666667
     0.416666667     0.791666667     0.208333333
     0.458333333     0.750000000     0.208333333
     0.458333333     0.750000000     0.291666667
     0.458333333     0.791666667     0.250000000
     0.416666667     0.750000000     0.333333333
     0.416666667     0.791666667     0.375000000
     0.458333333     0.791666667     0.333333333
     0.458333333     0.750000000     0.458333333
     0.416666667     0.750000000     0.500000000
     0.458333333     0.750000000     0.541666667
     0.416666667     0.791666667     0.625000000
     0.458333333     0.791666667     0.583333333
     0.416666667     0.750000000     0.666666667
     0.416666667     0.791666667     0.708333333
     0.458333333     0.750000000     0.708333333
     0.416666667     0.791666667     0.791666667
     0.458333333     0.750000000     0.791666667
     0.458333333     0.750000000     0.875000000
     0.458333333     0.791666667     0.833333333
     0.416666667     0.791666667     0.958333333
     0.458333333     0.750000000     0.958333333
     0.458333333     0.791666667     0.916666667
     0.416666667     0.833333333     0.000000000
     0.416666667     0.875000000     0.041666667
     0.458333333     0.833333333     0.041666667
     0.458333333     0.875000000     0.000000000
     0.416666667     0.833333333     0.083333333
     0.416666667     0.875000000     0.125000000
     0.458333333     0.833333333     0.125000000
     0.458333333     0.875000000     0.083333333
     0.416666667     0.833333333     0.166666667
     0.416666667     0.875000000     0.208333333
     0.458333333     0.833333333     0.208333333
     0.458333333     0.875000000     0.166666667
     0.416666667     0.875000000     0.291666667
     0.458333333     0.833333333     0.291666667
     0.458333333     0.875000000     0.250000000
     0.458333333     0.875000000     0.333333333
     0.416666667     0.833333333     0.416666667
     0.416666667     0.875000000     0.458333333
     0.458333333     0.833333333     0.458333333
     0.458333333     0.875000000     0.416666667
     0.416666667     0.833333333     0.500000000
     0.416666667     0.875000000     0.541666667
     0.416666667     0.833333333     0.583333333
     0.416666667     0.875000000     0.625000000
     0.458333333     0.833333333     0.625000000
     0.458333333     0.875000000     0.583333333
     0.416666667     0.875000000     0.708333333
     0.458333333     0.833333333     0.708333333
     0.458333333     0.875000000     0.666666667
     0.416666667     0.833333333     0.750000000
     0.416666667     0.875000000     0.791666667
     0.458333333     0.833333333     0.791666667
     0.416666667     0.833333333     0.833333333
     0.416666667     0.875000000     0.875000000
     0.458333333     0.833333333     0.875000000
     0.458333333     0.875000000     0.833333333
     0.416666667     0.833333333     0.916666667
     0.416666667     0.875000000     0.958333333
     0.458333333     0.833333333     0.958333333
     0.458333333     0.875000000     0.916666667
     0.416666667     0.916666667     0.000000000
     0.416666667     0.958333333     0.041666667
     0.458333333     0.916666667     0.041666667
     0.458333333     0.958333333     0.000000000
     0.416666667     0.916666667     0.083333333
     0.458333333     0.916666667     0.125000000
     0.458333333     0.958333333     0.083333333
     0.416666667     0.916666667     0.166666667
     0.416666667     0.958333333     0.208333333
     0.458333333     0.916666667     0.208333333
     0.458333333     0.958333333     0.166666667
     0.416666667     0.916666667     0.250000000
     0.416666667     0.958333333     0.291666667
     0.458333333     0.916666667     0.291666667
     0.458333333     0.958333333     0.250000000
     0.416666667     0.916666667     0.333333333
     0.416666667     0.958333333     0.375000000
     0.458333333     0.916666667     0.375000000
     0.458333333     0.958333333     0.333333333
     0.416666667     0.916666667     0.416666667
     0.416666667     0.958333333     0.458333333
     0.458333333     0.916666667     0.458333333
     0.416666667     0.916666667     0.500000000
     0.416666667     0.958333333     0.541666667
     0.458333333     0.916666667     0.541666667
     0.416666667     0.916666667     0.583333333
     0.416666667     0.958333333     0.625000000
     0.458333333     0.916666667     0.625000000
     0.458333333     0.958333333     0.583333333
     0.416666667     0.916666667     0.666666667
     0.416666667     0.958333333     0.708333333
     0.458333333     0.916666667     0.708333333
     0.458333333     0.958333333     0.666666667
     0.458333333     0.916666667     0.791666667
     0.458333333     0.958333333     0.750000000
     0.416666667     0.916666667     0.833333333
     0.416666667     0.958333333     0.875000000
     0.458333333     0.916666667     0.875000000
     0.458333333     0.958333333     0.833333333
     0.416666667     0.916666667     0.916666667
     0.416666667     0.958333333     0.958333333
     0.458333333     0.916666667     0.958333333
     0.500000000     0.000000000     0.000000000
     0.541666667     0.000000000     0.041666667
     0.541666667     0.041666667     0.000000000
     0.500000000     0.041666667     0.125000000
     0.541666667     0.000000000     0.125000000
     0.500000000     0.000000000     0.166666667
     0.541666667     0.041666667     0.166666667
     0.500000000     0.000000000     0.250000000
     0.500000000     0.041666667     0.291666667
     0.541666667     0.000000000     0.291666667
     0.541666667     0.041666667     0.250000000
     0.500000000     0.000000000     0.333333333
     0.500000000     0.041666667     0.375000000
     0.541666667     0.000000000     0.375000000
     0.541666667     0.041666667     0.333333333
     0.541666667     0.000000000     0.458333333
     0.541666667     0.041666667     0.416666667
     0.500000000     0.000000000     0.500000000
     0.541666667     0.041666667     0.500000000
     0.500000000     0.000000000     0.583333333
     0.541666667     0.000000000     0.625000000
     0.541666667     0.041666667     0.583333333
     0.541666667     0.000000000     0.708333333
     0.541666667     0.041666667     0.666666667
     0.500000000     0.000000000     0.750000000
     0.541666667     0.000000000     0.791666667
     0.500000000     0.000000000     0.833333333
     0.500000000     0.041666667     0.875000000
     0.541666667     0.000000000     0.875000000
     0.541666667     0.041666667     0.833333333
     0.500000000     0.000000000     0.916666667
     0.500000000     0.041666667     0.958333333
     0.541666667     0.041666667     0.916666667
     0.500000000     0.083333333     0.000000000
     0.500000000     0.125000000     0.041666667
     0.541666667     0.083333333     0.041666667
     0.500000000     0.083333333     0.083333333
     0.500000000     0.125000000     0.125000000
     0.541666667     0.083333333     0.125000000
     0.541666667     0.125000000     0.083333333
     0.500000000     0.083333333     0.166666667
     0.500000000     0.125000000     0.208333333
     0.541666667     0.083333333     0.208333333
     0.541666667     0.125000000     0.166666667
     0.500000000     0.125000000     0.291666667
     0.541666667     0.083333333     0.291666667
     0.541666667     0.125000000     0.250000000
     0.500000000     0.083333333     0.333333333
     0.500000000     0.125000000     0.375000000
     0.541666667     0.083333333     0.375000000
     0.541666667     0.125000000     0.333333333
     0.500000000     0.125000000     0.458333333
     0.541666667     0.083333333     0.458333333
     0.541666667     0.125000000     0.416666667
     0.500000000     0.125000000     0.541666667
     0.541666667     0.083333333     0.541666667
     0.541666667     0.125000000     0.500000000
     0.541666667     0.083333333     0.625000000
     0.541666667     0.125000000     0.583333333
     0.500000000     0.083333333     0.666666667
     0.500000000     0.125000000     0.708333333
     0.541666667     0.083333333     0.708333333
     0.541666667     0.125000000     0.666666667
     0.500000000     0.083333333     0.750000000
     0.500000000     0.125000000     0.791666667
     0.541666667     0.083333333     0.791666667
     0.541666667     0.125000000     0.750000000
     0.500000000     0.083333333     0.833333333
     0.500000000     0.125000000     0.875000000
     0.541666667     0.125000000     0.833333333
     0.500000000     0.125000000     0.958333333
     0.541666667     0.083333333     0.958333333
     0.541666667     0.125000000     0.916666667
     0.500000000     0.166666667     0.000000000
     0.500000000     0.208333333     0.041666667
     0.541666667     0.166666667     0.041666667
     0.541666667     0.208333333     0.000000000
     0.500000000     0.166666667     0.083333333
     0.500000000     0.208333333     0.125000000
     0.500000000     0.208333333     0.208333333
     0.541666667     0.166666667     0.208333333
     0.541666667     0.208333333     0.166666667
     0.500000000     0.208333333     0.291666667
     0.541666667     0.166666667     0.291666667
     0.500000000     0.166666667     0.333333333
     0.500000000     0.208333333     0.375000000
     0.541666667     0.208333333     0.333333333
     0.500000000     0.166666667     0.416666667
     0.541666667     0.166666667     0.458333333
     0.541666667     0.208333333     0.416666667
     0.500000000     0.166666667     0.500000000
     0.500000000     0.208333333     0.541666667
     0.541666667     0.208333333     0.500000000
     0.500000000     0.166666667     0.583333333
     0.500000000     0.208333333     0.625000000
     0.541666667     0.166666667     0.625000000
     0.500000000     0.166666667     0.666666667
     0.500000000     0.208333333     0.708333333
     0.541666667     0.166666667     0.708333333
     0.541666667     0.208333333     0.666666667
     0.500000000     0.166666667     0.750000000
     0.500000000     0.208333333     0.791666667
     0.541666667     0.166666667     0.791666667
     0.500000000     0.166666667     0.833333333
     0.500000000     0.208333333     0.875000000
     0.541666667     0.166666667     0.875000000
     0.541666667     0.208333333     0.833333333
     0.500000000     0.166666667     0.916666667
     0.500000000     0.208333333     0.958333333
     0.541666667     0.208333333     0.916666667
     0.500000000     0.250000000     0.000000000
     0.500000000     0.291666667     0.041666667
     0.541666667     0.291666667     0.000000000
     0.500000000     0.250000000     0.083333333
     0.500000000     0.291666667     0.125000000
     0.541666667     0.250000000     0.125000000
     0.541666667     0.291666667     0.083333333
     0.500000000     0.250000000     0.166666667
     0.500000000     0.291666667     0.208333333
     0.541666667     0.291666667     0.166666667
     0.500000000     0.250000000     0.250000000
     0.541666667     0.250000000     0.291666667
     0.541666667     0.291666667     0.250000000
     0.500000000     0.250000000     0.333333333
     0.500000000     0.291666667     0.375000000
     0.541666667     0.250000000     0.375000000
     0.541666667     0.291666667     0.333333333
     0.500000000     0.250000000     0.416666667
     0.500000000     0.291666667     0.458333333
     0.541666667     0.291666667     0.416666667
     0.500000000     0.250000000     0.500000000
     0.500000000     0.291666667     0.541666667
     0.541666667     0.250000000     0.541666667
     0.500000000     0.250000000     0.583333333
     0.500000000     0.291666667     0.625000000
     0.541666667     0.250000000     0.625000000
     0.500000000     0.250000000     0.666666667
     0.500000000     0.291666667     0.708333333
     0.541666667     0.250000000     0.708333333
     0.541666667     0.291666667     0.666666667
     0.500000000     0.250000000     0.833333333
     0.500000000     0.291666667     0.875000000
     0.541666667     0.291666667     0.833333333
     0.541666667     0.250000000     0.958333333
     0.500000000     0.333333333     0.000000000
     0.500000000     0.375000000     0.041666667
     0.541666667     0.375000000     0.000000000
     0.500000000     0.333333333     0.083333333
     0.500000000     0.375000000     0.125000000
     0.541666667     0.333333333     0.208333333
     0.500000000     0.333333333     0.250000000
     0.500000000     0.375000000     0.291666667
     0.541666667     0.333333333     0.291666667
     0.500000000     0.333333333     0.333333333
     0.500000000     0.375000000     0.375000000
     0.541666667     0.333333333     0.375000000
     0.500000000     0.375000000     0.458333333
     0.541666667     0.333333333     0.458333333
     0.541666667     0.375000000     0.416666667
     0.500000000     0.333333333     0.500000000
     0.500000000     0.375000000     0.541666667
     0.541666667     0.375000000     0.500000000
     0.500000000     0.333333333     0.583333333
     0.500000000     0.375000000     0.625000000
     0.541666667     0.333333333     0.625000000
     0.541666667     0.375000000     0.583333333
     0.500000000     0.333333333     0.666666667
     0.541666667     0.333333333     0.708333333
     0.500000000     0.333333333     0.750000000
     0.500000000     0.375000000     0.791666667
     0.541666667     0.333333333     0.791666667
     0.500000000     0.375000000     0.875000000
     0.541666667     0.333333333     0.875000000
     0.541666667     0.375000000     0.833333333
     0.541666667     0.333333333     0.958333333
     0.541666667     0.375000000     0.916666667
     0.500000000     0.416666667     0.000000000
     0.500000000     0.416666667     0.083333333
     0.500000000     0.458333333     0.125000000
     0.541666667     0.416666667     0.125000000
     0.541666667     0.458333333     0.083333333
     0.500000000     0.458333333     0.208333333
     0.541666667     0.416666667     0.208333333
     0.541666667     0.458333333     0.166666667
     0.500000000     0.416666667     0.250000000
     0.500000000     0.458333333     0.291666667
     0.541666667     0.458333333     0.250000000
     0.500000000     0.416666667     0.333333333
     0.500000000     0.458333333     0.375000000
     0.541666667     0.458333333     0.333333333
     0.500000000     0.416666667     0.416666667
     0.500000000     0.458333333     0.458333333
     0.541666667     0.416666667     0.458333333
     0.541666667     0.458333333     0.416666667
     0.500000000     0.416666667     0.500000000
     0.500000000     0.458333333     0.541666667
     0.541666667     0.416666667     0.541666667
     0.541666667     0.458333333     0.500000000
     0.541666667     0.416666667     0.625000000
     0.541666667     0.458333333     0.583333333
     0.500000000     0.458333333     0.708333333
     0.500000000     0.458333333     0.791666667
     0.541666667     0.416666667     0.791666667
     0.541666667     0.458333333     0.750000000
     0.500000000     0.416666667     0.833333333
     0.500000000     0.458333333     0.875000000
     0.500000000     0.416666667     0.916666667
     0.500000000     0.458333333     0.958333333
     0.541666667     0.416666667     0.958333333
     0.541666667     0.458333333     0.916666667
     0.500000000     0.500000000     0.000000000
     0.500000000     0.541666667     0.041666667
     0.541666667     0.500000000     0.041666667
     0.541666667     0.541666667     0.000000000
     0.500000000     0.500000000     0.083333333
     0.541666667     0.500000000     0.125000000
     0.541666667     0.541666667     0.083333333
     0.500000000     0.500000000     0.166666667
     0.541666667     0.500000000     0.208333333
     0.500000000     0.500000000     0.250000000
     0.500000000     0.541666667     0.291666667
     0.541666667     0.500000000     0.291666667
     0.541666667     0.541666667     0.250000000
     0.500000000     0.500000000     0.333333333
     0.500000000     0.541666667     0.375000000
     0.541666667     0.541666667     0.333333333
     0.500000000     0.541666667     0.458333333
     0.541666667     0.500000000     0.458333333
     0.500000000     0.500000000     0.500000000
     0.500000000     0.541666667     0.541666667
     0.541666667     0.541666667     0.500000000
     0.500000000     0.500000000     0.583333333
     0.500000000     0.541666667     0.625000000
     0.541666667     0.500000000     0.625000000
     0.541666667     0.541666667     0.583333333
     0.500000000     0.541666667     0.708333333
     0.541666667     0.500000000     0.708333333
     0.541666667     0.541666667     0.666666667
     0.500000000     0.500000000     0.750000000
     0.500000000     0.541666667     0.791666667
     0.541666667     0.500000000     0.791666667
     0.500000000     0.500000000     0.833333333
     0.500000000     0.541666667     0.875000000
     0.541666667     0.500000000     0.875000000
     0.541666667     0.541666667     0.833333333
     0.541666667     0.500000000     0.958333333
     0.500000000     0.583333333     0.000000000
     0.500000000     0.625000000     0.041666667
     0.541666667     0.583333333     0.041666667
     0.541666667     0.625000000     0.000000000
     0.500000000     0.583333333     0.083333333
     0.500000000     0.583333333     0.166666667
     0.541666667     0.583333333     0.208333333
     0.541666667     0.625000000     0.166666667
     0.500000000     0.583333333     0.250000000
     0.541666667     0.583333333     0.291666667
     0.541666667     0.625000000     0.250000000
     0.541666667     0.625000000     0.333333333
     0.500000000     0.583333333     0.416666667
     0.500000000     0.625000000     0.458333333
     0.541666667     0.583333333     0.458333333
     0.500000000     0.583333333     0.500000000
     0.500000000     0.625000000     0.541666667
     0.541666667     0.583333333     0.541666667
     0.500000000     0.583333333     0.583333333
     0.500000000     0.625000000     0.625000000
     0.541666667     0.625000000     0.583333333
     0.500000000     0.583333333     0.666666667
     0.500000000     0.625000000     0.708333333
     0.541666667     0.583333333     0.708333333
     0.541666667     0.625000000     0.666666667
     0.500000000     0.583333333     0.750000000
     0.541666667     0.583333333     0.791666667
     0.500000000     0.583333333     0.833333333
     0.541666667     0.583333333     0.875000000
     0.541666667     0.625000000     0.833333333
     0.500000000     0.625000000     0.958333333
     0.541666667     0.583333333     0.958333333
     0.500000000     0.708333333     0.041666667
     0.541666667     0.708333333     0.000000000
     0.500000000     0.708333333     0.125000000
     0.541666667     0.666666667     0.125000000
     0.500000000     0.666666667     0.166666667
     0.500000000     0.708333333     0.208333333
     0.541666667     0.666666667     0.208333333
     0.541666667     0.666666667     0.291666667
     0.541666667     0.708333333     0.333333333
     0.541666667     0.666666667     0.458333333
     0.541666667     0.708333333     0.416666667
     0.500000000     0.666666667     0.500000000
     0.500000000     0.708333333     0.541666667
     0.541666667     0.666666667     0.541666667
     0.541666667     0.708333333     0.500000000
     0.500000000     0.666666667     0.583333333
     0.500000000     0.708333333     0.625000000
     0.541666667     0.708333333     0.583333333
     0.500000000     0.666666667     0.666666667
     0.500000000     0.708333333     0.708333333
     0.541666667     0.708333333     0.666666667
     0.500000000     0.708333333     0.791666667
     0.541666667     0.666666667     0.791666667
     0.541666667     0.708333333     0.750000000
     0.500000000     0.666666667     0.833333333
     0.500000000     0.708333333     0.875000000
     0.541666667     0.666666667     0.875000000
     0.500000000     0.708333333     0.958333333
     0.541666667     0.666666667     0.958333333
     0.541666667     0.708333333     0.916666667
     0.500000000     0.750000000     0.000000000
     0.500000000     0.791666667     0.041666667
     0.541666667     0.750000000     0.041666667
     0.541666667     0.791666667     0.000000000
     0.500000000     0.750000000     0.083333333
     0.500000000     0.791666667     0.125000000
     0.541666667     0.750000000     0.125000000
     0.541666667     0.791666667     0.083333333
     0.500000000     0.750000000     0.166666667
     0.500000000     0.791666667     0.208333333
     0.541666667     0.750000000     0.208333333
     0.541666667     0.791666667     0.166666667
     0.500000000     0.750000000     0.250000000
     0.500000000     0.791666667     0.291666667
     0.541666667     0.750000000     0.291666667
     0.500000000     0.750000000     0.333333333
     0.500000000     0.791666667     0.375000000
     0.541666667     0.750000000     0.375000000
     0.541666667     0.791666667     0.333333333
     0.500000000     0.750000000     0.416666667
     0.500000000     0.791666667     0.458333333
     0.541666667     0.750000000     0.458333333
     0.541666667     0.791666667     0.416666667
     0.500000000     0.750000000     0.500000000
     0.500000000     0.791666667     0.541666667
     0.541666667     0.791666667     0.500000000
     0.541666667     0.750000000     0.625000000
     0.541666667     0.791666667     0.583333333
     0.541666667     0.750000000     0.708333333
     0.541666667     0.791666667     0.666666667
     0.500000000     0.791666667     0.791666667
     0.541666667     0.750000000     0.791666667
     0.500000000     0.791666667     0.875000000
     0.541666667     0.750000000     0.875000000
     0.541666667     0.791666667     0.833333333
     0.500000000     0.791666667     0.958333333
     0.541666667     0.750000000     0.958333333
     0.541666667     0.791666667     0.916666667
     0.500000000     0.833333333     0.000000000
     0.541666667     0.833333333     0.041666667
     0.500000000     0.875000000     0.125000000
     0.541666667     0.833333333     0.125000000
     0.541666667     0.875000000     0.083333333
     0.500000000     0.833333333     0.166666667
     0.541666667     0.833333333     0.208333333
     0.541666667     0.875000000     0.166666667
     0.500000000     0.833333333     0.250000000
     0.500000000     0.875000000     0.291666667
     0.541666667     0.833333333     0.291666667
     0.500000000     0.875000000     0.375000000
     0.541666667     0.875000000     0.333333333
     0.500000000     0.833333333     0.416666667
     0.500000000     0.875000000     0.458333333
     0.500000000     0.833333333     0.500000000
     0.541666667     0.833333333     0.541666667
     0.500000000     0.875000000     0.625000000
     0.541666667     0.833333333     0.625000000
     0.500000000     0.833333333     0.666666667
     0.500000000     0.875000000     0.708333333
     0.541666667     0.833333333     0.708333333
     0.541666667     0.875000000     0.666666667
     0.500000000     0.833333333     0.750000000
     0.500000000     0.875000000     0.791666667
     0.541666667     0.833333333     0.791666667
     0.541666667     0.875000000     0.750000000
     0.500000000     0.833333333     0.833333333
     0.500000000     0.875000000     0.875000000
     0.541666667     0.833333333     0.875000000
     0.541666667     0.875000000     0.833333333
     0.500000000     0.833333333     0.916666667
     0.500000000     0.875000000     0.958333333
     0.541666667     0.833333333     0.958333333
     0.541666667     0.875000000     0.916666667
     0.500000000     0.958333333     0.041666667
     0.500000000     0.916666667     0.083333333
     0.500000000     0.958333333     0.125000000
     0.541666667     0.916666667     0.125000000
     0.541666667     0.958333333     0.083333333
     0.500000000     0.916666667     0.166666667
     0.541666667     0.916666667     0.208333333
     0.541666667     0.958333333     0.166666667
     0.500000000     0.916666667     0.250000000
     0.541666667     0.916666667     0.291666667
     0.541666667     0.958333333     0.250000000
     0.500000000     0.916666667     0.333333333
     0.500000000     0.958333333     0.375000000
     0.541666667     0.916666667     0.375000000
     0.541666667     0.958333333     0.333333333
     0.500000000     0.916666667     0.416666667
     0.500000000     0.958333333     0.458333333
     0.541666667     0.958333333     0.416666667
     0.500000000     0.916666667     0.500000000
     0.500000000     0.958333333     0.541666667
     0.541666667     0.958333333     0.500000000
     0.500000000     0.916666667     0.583333333
     0.500000000     0.958333333     0.625000000
     0.541666667     0.916666667     0.625000000
     0.541666667     0.958333333     0.583333333
     0.541666667     0.958333333     0.666666667
     0.500000000     0.916666667     0.750000000
     0.500000000     0.958333333     0.791666667
     0.541666667     0.916666667     0.791666667
     0.500000000     0.916666667     0.833333333
     0.500000000     0.958333333     0.875000000
     0.541666667     0.916666667     0.875000000
     0.541666667     0.958333333     0.833333333
     0.500000000     0.916666667     0.916666667
     0.500000000     0.958333333     0.958333333
     0.541666667     0.916666667     0.958333333
     0.541666667     0.958333333     0.916666667
     0.583333333     0.041666667     0.041666667
     0.625000000     0.000000000     0.041666667
     0.625000000     0.041666667     0.000000000
     0.583333333     0.041666667     0.125000000
     0.625000000     0.000000000     0.125000000
     0.625000000     0.041666667     0.083333333
     0.583333333     0.000000000     0.166666667
     0.583333333     0.041666667     0.208333333
     0.625000000     0.000000000     0.208333333
     0.625000000     0.041666667     0.166666667
     0.583333333     0.041666667     0.291666667
     0.625000000     0.000000000     0.291666667
     0.625000000     0.041666667     0.250000000
     0.583333333     0.000000000     0.333333333
     0.583333333     0.041666667     0.375000000
     0.625000000     0.000000000     0.375000000
     0.625000000     0.041666667     0.333333333
     0.583333333     0.000000000     0.416666667
     0.625000000     0.000000000     0.458333333
     0.625000000     0.041666667     0.416666667
     0.583333333     0.000000000     0.500000000
     0.625000000     0.041666667     0.500000000
     0.583333333     0.000000000     0.583333333
     0.625000000     0.000000000     0.625000000
     0.625000000     0.041666667     0.583333333
     0.583333333     0.041666667     0.708333333
     0.625000000     0.000000000     0.708333333
     0.583333333     0.000000000     0.750000000
     0.625000000     0.000000000     0.791666667
     0.583333333     0.000000000     0.833333333
     0.583333333     0.041666667     0.875000000
     0.583333333     0.000000000     0.916666667
     0.583333333     0.041666667     0.958333333
     0.625000000     0.000000000     0.958333333
     0.625000000     0.041666667     0.916666667
     0.583333333     0.083333333     0.000000000
     0.583333333     0.125000000     0.041666667
     0.625000000     0.083333333     0.041666667
     0.625000000     0.125000000     0.000000000
     0.583333333     0.083333333     0.083333333
     0.583333333     0.125000000     0.125000000
     0.625000000     0.083333333     0.125000000
     0.625000000     0.125000000     0.083333333
     0.583333333     0.083333333     0.166666667
     0.583333333     0.125000000     0.208333333
     0.583333333     0.083333333     0.250000000
     0.583333333     0.125000000     0.291666667
     0.625000000     0.083333333     0.291666667
     0.583333333     0.083333333     0.333333333
     0.625000000     0.083333333     0.375000000
     0.625000000     0.125000000     0.333333333
     0.583333333     0.125000000     0.458333333
     0.625000000     0.083333333     0.458333333
     0.625000000     0.125000000     0.416666667
     0.583333333     0.083333333     0.500000000
     0.583333333     0.125000000     0.541666667
     0.625000000     0.083333333     0.541666667
     0.625000000     0.125000000     0.500000000
     0.583333333     0.083333333     0.583333333
     0.625000000     0.083333333     0.625000000
     0.625000000     0.083333333     0.708333333
     0.625000000     0.125000000     0.666666667
     0.625000000     0.083333333     0.791666667
     0.625000000     0.125000000     0.750000000
     0.583333333     0.083333333     0.833333333
     0.625000000     0.125000000     0.833333333
     0.583333333     0.125000000     0.958333333
     0.625000000     0.083333333     0.958333333
     0.625000000     0.125000000     0.916666667
     0.583333333     0.166666667     0.000000000
     0.583333333     0.208333333     0.041666667
     0.625000000     0.166666667     0.041666667
     0.625000000     0.208333333     0.000000000
     0.583333333     0.166666667     0.083333333
     0.583333333     0.208333333     0.125000000
     0.625000000     0.166666667     0.125000000
     0.625000000     0.208333333     0.083333333
     0.583333333     0.166666667     0.166666667
     0.583333333     0.208333333     0.208333333
     0.625000000     0.166666667     0.208333333
     0.625000000     0.208333333     0.166666667
     0.583333333     0.208333333     0.291666667
     0.625000000     0.166666667     0.291666667
     0.625000000     0.208333333     0.250000000
     0.583333333     0.166666667     0.333333333
     0.583333333     0.208333333     0.375000000
     0.625000000     0.166666667     0.375000000
     0.625000000     0.208333333     0.333333333
     0.583333333     0.166666667     0.416666667
     0.583333333     0.208333333     0.458333333
     0.625000000     0.166666667     0.458333333
     0.583333333     0.166666667     0.500000000
     0.625000000     0.166666667     0.541666667
     0.625000000     0.208333333     0.500000000
     0.583333333     0.208333333     0.625000000
     0.625000000     0.166666667     0.625000000
     0.625000000     0.208333333     0.583333333
     0.583333333     0.166666667     0.666666667
     0.583333333     0.208333333     0.708333333
     0.583333333     0.166666667     0.750000000
     0.583333333     0.208333333     0.791666667
     0.625000000     0.166666667     0.791666667
     0.625000000     0.208333333     0.750000000
     0.583333333     0.166666667     0.833333333
     0.583333333     0.208333333     0.875000000
     0.625000000     0.208333333     0.833333333
     0.583333333     0.166666667     0.916666667
     0.625000000     0.166666667     0.958333333
     0.625000000     0.208333333     0.916666667
     0.583333333     0.250000000     0.000000000
     0.583333333     0.291666667     0.041666667
     0.625000000     0.250000000     0.041666667
     0.625000000     0.291666667     0.000000000
     0.583333333     0.250000000     0.083333333
     0.583333333     0.291666667     0.125000000
     0.625000000     0.250000000     0.125000000
     0.625000000     0.291666667     0.083333333
     0.583333333     0.291666667     0.208333333
     0.625000000     0.291666667     0.166666667
     0.583333333     0.250000000     0.250000000
     0.625000000     0.250000000     0.291666667
     0.625000000     0.291666667     0.250000000
     0.583333333     0.250000000     0.333333333
     0.625000000     0.291666667     0.333333333
     0.583333333     0.250000000     0.416666667
     0.583333333     0.291666667     0.458333333
     0.625000000     0.291666667     0.416666667
     0.583333333     0.291666667     0.541666667
     0.583333333     0.250000000     0.583333333
     0.583333333     0.291666667     0.625000000
     0.625000000     0.250000000     0.625000000
     0.625000000     0.291666667     0.583333333
     0.583333333     0.291666667     0.708333333
     0.625000000     0.250000000     0.708333333
     0.625000000     0.291666667     0.666666667
     0.625000000     0.291666667     0.750000000
     0.583333333     0.250000000     0.833333333
     0.583333333     0.291666667     0.875000000
     0.625000000     0.250000000     0.875000000
     0.625000000     0.291666667     0.833333333
     0.583333333     0.250000000     0.916666667
     0.583333333     0.291666667     0.958333333
     0.625000000     0.250000000     0.958333333
     0.583333333     0.333333333     0.000000000
     0.625000000     0.333333333     0.041666667
     0.583333333     0.333333333     0.083333333
     0.583333333     0.375000000     0.125000000
     0.625000000     0.333333333     0.125000000
     0.625000000     0.375000000     0.083333333
     0.625000000     0.333333333     0.208333333
     0.625000000     0.375000000     0.166666667
     0.625000000     0.333333333     0.291666667
     0.625000000     0.375000000     0.250000000
     0.583333333     0.375000000     0.375000000
     0.583333333     0.333333333     0.416666667
     0.583333333     0.375000000     0.458333333
     0.625000000     0.333333333     0.458333333
     0.625000000     0.375000000     0.416666667
     0.625000000     0.333333333     0.541666667
     0.583333333     0.333333333     0.583333333
     0.625000000     0.333333333     0.625000000
     0.625000000     0.375000000     0.583333333
     0.583333333     0.333333333     0.666666667
     0.583333333     0.375000000     0.708333333
     0.625000000     0.333333333     0.708333333
     0.625000000     0.375000000     0.666666667
     0.583333333     0.333333333     0.750000000
     0.583333333     0.375000000     0.791666667
     0.625000000     0.333333333     0.791666667
     0.583333333     0.333333333     0.833333333
     0.583333333     0.375000000     0.875000000
     0.625000000     0.333333333     0.875000000
     0.625000000     0.375000000     0.833333333
     0.583333333     0.333333333     0.916666667
     0.583333333     0.375000000     0.958333333
     0.625000000     0.333333333     0.958333333
     0.625000000     0.375000000     0.916666667
     0.583333333     0.458333333     0.041666667
     0.625000000     0.458333333     0.000000000
     0.583333333     0.416666667     0.083333333
     0.583333333     0.458333333     0.125000000
     0.625000000     0.416666667     0.125000000
     0.625000000     0.458333333     0.083333333
     0.583333333     0.416666667     0.166666667
     0.625000000     0.416666667     0.208333333
     0.583333333     0.416666667     0.250000000
     0.583333333     0.458333333     0.291666667
     0.625000000     0.416666667     0.291666667
     0.625000000     0.458333333     0.250000000
     0.583333333     0.458333333     0.375000000
     0.625000000     0.458333333     0.333333333
     0.583333333     0.416666667     0.416666667
     0.625000000     0.416666667     0.458333333
     0.625000000     0.458333333     0.416666667
     0.583333333     0.416666667     0.500000000
     0.583333333     0.458333333     0.541666667
     0.625000000     0.416666667     0.541666667
     0.625000000     0.458333333     0.500000000
     0.583333333     0.458333333     0.625000000
     0.625000000     0.416666667     0.625000000
     0.583333333     0.416666667     0.666666667
     0.625000000     0.416666667     0.708333333
     0.625000000     0.458333333     0.666666667
     0.583333333     0.416666667     0.750000000
     0.583333333     0.416666667     0.833333333
     0.583333333     0.416666667     0.916666667
     0.583333333     0.458333333     0.958333333
     0.625000000     0.458333333     0.916666667
     0.583333333     0.541666667     0.041666667
     0.625000000     0.500000000     0.041666667
     0.625000000     0.541666667     0.000000000
     0.583333333     0.541666667     0.125000000
     0.625000000     0.500000000     0.125000000
     0.625000000     0.541666667     0.083333333
     0.583333333     0.541666667     0.208333333
     0.625000000     0.541666667     0.166666667
     0.583333333     0.500000000     0.250000000
     0.583333333     0.541666667     0.291666667
     0.625000000     0.541666667     0.250000000
     0.583333333     0.500000000     0.333333333
     0.625000000     0.541666667     0.333333333
     0.583333333     0.500000000     0.416666667
     0.583333333     0.541666667     0.458333333
     0.625000000     0.541666667     0.416666667
     0.583333333     0.541666667     0.541666667
     0.625000000     0.500000000     0.541666667
     0.625000000     0.541666667     0.500000000
     0.583333333     0.541666667     0.625000000
     0.625000000     0.541666667     0.583333333
     0.583333333     0.500000000     0.666666667
     0.583333333     0.541666667     0.708333333
     0.625000000     0.541666667     0.666666667
     0.583333333     0.500000000     0.750000000
     0.625000000     0.500000000     0.791666667
     0.625000000     0.541666667     0.750000000
     0.625000000     0.500000000     0.875000000
     0.625000000     0.541666667     0.833333333
     0.583333333     0.541666667     0.958333333
     0.625000000     0.500000000     0.958333333
     0.625000000     0.541666667     0.916666667
     0.583333333     0.583333333     0.000000000
     0.583333333     0.625000000     0.041666667
     0.583333333     0.583333333     0.083333333
     0.583333333     0.625000000     0.125000000
     0.625000000     0.625000000     0.083333333
     0.583333333     0.625000000     0.208333333
     0.625000000     0.583333333     0.208333333
     0.583333333     0.583333333     0.250000000
     0.583333333     0.625000000     0.291666667
     0.625000000     0.583333333     0.291666667
     0.625000000     0.625000000     0.250000000
     0.583333333     0.583333333     0.333333333
     0.583333333     0.625000000     0.375000000
     0.625000000     0.583333333     0.375000000
     0.583333333     0.583333333     0.416666667
     0.583333333     0.625000000     0.458333333
     0.625000000     0.625000000     0.416666667
     0.583333333     0.583333333     0.500000000
     0.625000000     0.583333333     0.541666667
     0.625000000     0.625000000     0.500000000
     0.583333333     0.583333333     0.583333333
     0.583333333     0.625000000     0.625000000
     0.625000000     0.583333333     0.625000000
     0.583333333     0.583333333     0.666666667
     0.583333333     0.625000000     0.708333333
     0.583333333     0.583333333     0.750000000
     0.583333333     0.625000000     0.791666667
     0.625000000     0.583333333     0.791666667
     0.625000000     0.625000000     0.750000000
     0.583333333     0.583333333     0.833333333
     0.583333333     0.625000000     0.875000000
     0.625000000     0.625000000     0.833333333
     0.583333333     0.583333333     0.916666667
     0.583333333     0.625000000     0.958333333
     0.625000000     0.625000000     0.916666667
     0.583333333     0.666666667     0.000000000
     0.583333333     0.708333333     0.041666667
     0.625000000     0.708333333     0.000000000
     0.583333333     0.666666667     0.083333333
     0.583333333     0.708333333     0.125000000
     0.625000000     0.666666667     0.125000000
     0.583333333     0.666666667     0.166666667
     0.583333333     0.708333333     0.208333333
     0.625000000     0.708333333     0.166666667
     0.583333333     0.666666667     0.250000000
     0.583333333     0.708333333     0.291666667
     0.625000000     0.666666667     0.291666667
     0.583333333     0.708333333     0.375000000
     0.625000000     0.666666667     0.375000000
     0.625000000     0.708333333     0.333333333
     0.583333333     0.666666667     0.416666667
     0.583333333     0.708333333     0.458333333
     0.625000000     0.666666667     0.458333333
     0.625000000     0.708333333     0.416666667
     0.583333333     0.666666667     0.500000000
     0.583333333     0.708333333     0.541666667
     0.625000000     0.666666667     0.541666667
     0.625000000     0.666666667     0.625000000
     0.625000000     0.708333333     0.583333333
     0.583333333     0.666666667     0.666666667
     0.625000000     0.666666667     0.708333333
     0.625000000     0.708333333     0.666666667
     0.583333333     0.666666667     0.750000000
     0.583333333     0.708333333     0.791666667
     0.625000000     0.666666667     0.791666667
     0.583333333     0.666666667     0.833333333
     0.625000000     0.666666667     0.875000000
     0.625000000     0.708333333     0.833333333
     0.583333333     0.666666667     0.916666667
     0.583333333     0.708333333     0.958333333
     0.625000000     0.666666667     0.958333333
     0.625000000     0.708333333     0.916666667
     0.583333333     0.791666667     0.041666667
     0.625000000     0.791666667     0.000000000
     0.583333333     0.750000000     0.083333333
     0.625000000     0.750000000     0.125000000
     0.625000000     0.791666667     0.083333333
     0.583333333     0.791666667     0.208333333
     0.625000000     0.791666667     0.250000000
     0.583333333     0.750000000     0.333333333
     0.583333333     0.791666667     0.375000000
     0.625000000     0.750000000     0.375000000
     0.583333333     0.750000000     0.416666667
     0.625000000     0.750000000     0.458333333
     0.625000000     0.791666667     0.416666667
     0.583333333     0.791666667     0.541666667
     0.625000000     0.791666667     0.500000000
     0.583333333     0.750000000     0.583333333
     0.583333333     0.791666667     0.625000000
     0.625000000     0.750000000     0.625000000
     0.625000000     0.791666667     0.583333333
     0.625000000     0.750000000     0.708333333
     0.625000000     0.791666667     0.666666667
     0.583333333     0.750000000     0.750000000
     0.583333333     0.791666667     0.791666667
     0.625000000     0.750000000     0.791666667
     0.583333333     0.750000000     0.833333333
     0.583333333     0.791666667     0.875000000
     0.625000000     0.750000000     0.875000000
     0.625000000     0.791666667     0.833333333
     0.583333333     0.791666667     0.958333333
     0.625000000     0.750000000     0.958333333
     0.625000000     0.791666667     0.916666667
     0.583333333     0.833333333     0.000000000
     0.583333333     0.875000000     0.041666667
     0.625000000     0.833333333     0.041666667
     0.625000000     0.875000000     0.000000000
     0.583333333     0.833333333     0.083333333
     0.583333333     0.875000000     0.125000000
     0.625000000     0.833333333     0.125000000
     0.625000000     0.875000000     0.083333333
     0.583333333     0.875000000     0.208333333
     0.625000000     0.833333333     0.208333333
     0.583333333     0.833333333     0.250000000
     0.583333333     0.875000000     0.291666667
     0.625000000     0.833333333     0.291666667
     0.583333333     0.833333333     0.333333333
     0.625000000     0.833333333     0.375000000
     0.625000000     0.875000000     0.333333333
     0.583333333     0.875000000     0.458333333
     0.625000000     0.833333333     0.458333333
     0.625000000     0.833333333     0.541666667
     0.625000000     0.875000000     0.500000000
     0.583333333     0.833333333     0.583333333
     0.583333333     0.875000000     0.625000000
     0.625000000     0.833333333     0.625000000
     0.625000000     0.875000000     0.583333333
     0.625000000     0.875000000     0.666666667
     0.583333333     0.833333333     0.750000000
     0.625000000     0.833333333     0.791666667
     0.625000000     0.875000000     0.750000000
     0.583333333     0.833333333     0.833333333
     0.583333333     0.875000000     0.875000000
     0.625000000     0.833333333     0.875000000
     0.625000000     0.875000000     0.833333333
     0.583333333     0.833333333     0.916666667
     0.583333333     0.875000000     0.958333333
     0.625000000     0.833333333     0.958333333
     0.625000000     0.875000000     0.916666667
     0.583333333     0.916666667     0.000000000
     0.625000000     0.916666667     0.041666667
     0.583333333     0.916666667     0.083333333
     0.583333333     0.958333333     0.125000000
     0.625000000     0.958333333     0.083333333
     0.583333333     0.958333333     0.208333333
     0.625000000     0.958333333     0.166666667
     0.583333333     0.916666667     0.250000000
     0.583333333     0.958333333     0.291666667
     0.625000000     0.916666667     0.291666667
     0.625000000     0.958333333     0.250000000
     0.583333333     0.958333333     0.375000000
     0.583333333     0.916666667     0.416666667
     0.583333333     0.958333333     0.458333333
     0.625000000     0.958333333     0.416666667
     0.583333333     0.958333333     0.541666667
     0.625000000     0.916666667     0.541666667
     0.625000000     0.958333333     0.500000000
     0.583333333     0.958333333     0.625000000
     0.625000000     0.916666667     0.625000000
     0.625000000     0.958333333     0.583333333
     0.583333333     0.916666667     0.666666667
     0.583333333     0.958333333     0.708333333
     0.625000000     0.916666667     0.708333333
     0.625000000     0.958333333     0.666666667
     0.583333333     0.958333333     0.791666667
     0.625000000     0.916666667     0.791666667
     0.625000000     0.958333333     0.833333333
     0.625000000     0.916666667     0.958333333
     0.666666667     0.000000000     0.000000000
     0.666666667     0.041666667     0.041666667
     0.708333333     0.041666667     0.000000000
     0.666666667     0.000000000     0.083333333
     0.666666667     0.041666667     0.125000000
     0.708333333     0.000000000     0.125000000
     0.666666667     0.000000000     0.166666667
     0.666666667     0.041666667     0.208333333
     0.708333333     0.000000000     0.208333333
     0.708333333     0.041666667     0.166666667
     0.666666667     0.000000000     0.250000000
     0.666666667     0.041666667     0.291666667
     0.708333333     0.041666667     0.250000000
     0.666666667     0.000000000     0.333333333
     0.666666667     0.041666667     0.375000000
     0.708333333     0.000000000     0.375000000
     0.708333333     0.041666667     0.333333333
     0.708333333     0.000000000     0.458333333
     0.708333333     0.041666667     0.416666667
     0.666666667     0.000000000     0.500000000
     0.666666667     0.041666667     0.541666667
     0.708333333     0.000000000     0.541666667
     0.708333333     0.041666667     0.500000000
     0.666666667     0.000000000     0.583333333
     0.666666667     0.041666667     0.625000000
     0.708333333     0.000000000     0.625000000
     0.708333333     0.041666667     0.583333333
     0.708333333     0.041666667     0.666666667
     0.666666667     0.000000000     0.750000000
     0.708333333     0.000000000     0.791666667
     0.666666667     0.000000000     0.833333333
     0.666666667     0.041666667     0.875000000
     0.708333333     0.000000000     0.875000000
     0.666666667     0.000000000     0.916666667
     0.666666667     0.041666667     0.958333333
     0.708333333     0.000000000     0.958333333
     0.708333333     0.041666667     0.916666667
     0.708333333     0.125000000     0.000000000
     0.666666667     0.083333333     0.083333333
     0.708333333     0.083333333     0.125000000
     0.708333333     0.125000000     0.083333333
     0.666666667     0.083333333     0.166666667
     0.708333333     0.083333333     0.208333333
     0.666666667     0.083333333     0.250000000
     0.666666667     0.125000000     0.291666667
     0.708333333     0.083333333     0.291666667
     0.708333333     0.125000000     0.250000000
     0.666666667     0.083333333     0.333333333
     0.708333333     0.125000000     0.333333333
     0.666666667     0.083333333     0.416666667
     0.666666667     0.125000000     0.458333333
     0.666666667     0.083333333     0.500000000
     0.708333333     0.083333333     0.541666667
     0.666666667     0.083333333     0.583333333
     0.666666667     0.125000000     0.625000000
     0.708333333     0.125000000     0.583333333
     0.708333333     0.125000000     0.666666667
     0.666666667     0.083333333     0.750000000
     0.666666667     0.125000000     0.791666667
     0.708333333     0.125000000     0.750000000
     0.666666667     0.083333333     0.833333333
     0.708333333     0.083333333     0.875000000
     0.708333333     0.125000000     0.833333333
     0.666666667     0.125000000     0.958333333
     0.708333333     0.083333333     0.958333333
     0.666666667     0.208333333     0.041666667
     0.708333333     0.166666667     0.041666667
     0.708333333     0.208333333     0.000000000
     0.666666667     0.166666667     0.083333333
     0.666666667     0.208333333     0.125000000
     0.708333333     0.166666667     0.125000000
     0.708333333     0.208333333     0.083333333
     0.708333333     0.166666667     0.208333333
     0.708333333     0.208333333     0.166666667
     0.666666667     0.166666667     0.250000000
     0.666666667     0.208333333     0.291666667
     0.708333333     0.166666667     0.291666667
     0.666666667     0.166666667     0.333333333
     0.666666667     0.208333333     0.375000000
     0.666666667     0.166666667     0.416666667
     0.666666667     0.208333333     0.458333333
     0.708333333     0.166666667     0.458333333
     0.708333333     0.208333333     0.416666667
     0.666666667     0.166666667     0.500000000
     0.666666667     0.208333333     0.541666667
     0.708333333     0.166666667     0.541666667
     0.708333333     0.166666667     0.625000000
     0.708333333     0.208333333     0.583333333
     0.666666667     0.166666667     0.666666667
     0.666666667     0.208333333     0.708333333
     0.708333333     0.166666667     0.708333333
     0.708333333     0.208333333     0.666666667
     0.666666667     0.166666667     0.750000000
     0.708333333     0.166666667     0.791666667
     0.708333333     0.208333333     0.750000000
     0.666666667     0.208333333     0.875000000
     0.708333333     0.166666667     0.875000000
     0.708333333     0.208333333     0.833333333
     0.666666667     0.166666667     0.916666667
     0.708333333     0.166666667     0.958333333
     0.666666667     0.291666667     0.041666667
     0.708333333     0.250000000     0.041666667
     0.708333333     0.291666667     0.000000000
     0.708333333     0.250000000     0.125000000
     0.708333333     0.291666667     0.083333333
     0.666666667     0.250000000     0.166666667
     0.666666667     0.291666667     0.208333333
     0.708333333     0.250000000     0.208333333
     0.708333333     0.291666667     0.166666667
     0.666666667     0.250000000     0.250000000
     0.666666667     0.291666667     0.291666667
     0.708333333     0.291666667     0.250000000
     0.666666667     0.291666667     0.375000000
     0.708333333     0.250000000     0.375000000
     0.708333333     0.250000000     0.458333333
     0.708333333     0.291666667     0.416666667
     0.666666667     0.250000000     0.500000000
     0.666666667     0.291666667     0.541666667
     0.708333333     0.291666667     0.500000000
     0.666666667     0.250000000     0.583333333
     0.666666667     0.291666667     0.625000000
     0.708333333     0.250000000     0.625000000
     0.708333333     0.291666667     0.583333333
     0.666666667     0.250000000     0.666666667
     0.666666667     0.291666667     0.708333333
     0.708333333     0.291666667     0.666666667
     0.666666667     0.250000000     0.750000000
     0.666666667     0.291666667     0.791666667
     0.708333333     0.250000000     0.791666667
     0.666666667     0.250000000     0.833333333
     0.708333333     0.250000000     0.875000000
     0.708333333     0.291666667     0.833333333
     0.708333333     0.250000000     0.958333333
     0.708333333     0.291666667     0.916666667
     0.708333333     0.333333333     0.041666667
     0.666666667     0.333333333     0.083333333
     0.666666667     0.375000000     0.125000000
     0.708333333     0.333333333     0.125000000
     0.708333333     0.375000000     0.083333333
     0.666666667     0.375000000     0.208333333
     0.708333333     0.375000000     0.166666667
     0.666666667     0.333333333     0.250000000
     0.666666667     0.375000000     0.291666667
     0.708333333     0.375000000     0.250000000
     0.666666667     0.333333333     0.333333333
     0.666666667     0.375000000     0.375000000
     0.666666667     0.333333333     0.416666667
     0.666666667     0.333333333     0.500000000
     0.666666667     0.375000000     0.541666667
     0.708333333     0.333333333     0.541666667
     0.708333333     0.375000000     0.500000000
     0.666666667     0.375000000     0.625000000
     0.708333333     0.375000000     0.583333333
     0.666666667     0.333333333     0.666666667
     0.666666667     0.375000000     0.708333333
     0.708333333     0.333333333     0.708333333
     0.708333333     0.375000000     0.666666667
     0.666666667     0.333333333     0.750000000
     0.708333333     0.333333333     0.791666667
     0.708333333     0.375000000     0.750000000
     0.708333333     0.333333333     0.875000000
     0.708333333     0.375000000     0.833333333
     0.666666667     0.333333333     0.916666667
     0.666666667     0.375000000     0.958333333
     0.708333333     0.375000000     0.916666667
     0.666666667     0.416666667     0.000000000
     0.666666667     0.458333333     0.041666667
     0.708333333     0.416666667     0.041666667
     0.708333333     0.458333333     0.000000000
     0.666666667     0.416666667     0.083333333
     0.666666667     0.458333333     0.125000000
     0.708333333     0.416666667     0.125000000
     0.708333333     0.458333333     0.083333333
     0.666666667     0.416666667     0.166666667
     0.666666667     0.458333333     0.208333333
     0.708333333     0.458333333     0.166666667
     0.666666667     0.458333333     0.291666667
     0.708333333     0.416666667     0.291666667
     0.708333333     0.458333333     0.250000000
     0.708333333     0.416666667     0.375000000
     0.708333333     0.458333333     0.333333333
     0.666666667     0.416666667     0.416666667
     0.666666667     0.458333333     0.458333333
     0.666666667     0.416666667     0.500000000
     0.708333333     0.416666667     0.541666667
     0.708333333     0.458333333     0.500000000
     0.666666667     0.458333333     0.625000000
     0.708333333     0.416666667     0.625000000
     0.708333333     0.458333333     0.583333333
     0.708333333     0.416666667     0.708333333
     0.708333333     0.458333333     0.666666667
     0.708333333     0.416666667     0.791666667
     0.708333333     0.458333333     0.750000000
     0.666666667     0.458333333     0.875000000
     0.708333333     0.416666667     0.875000000
     0.708333333     0.458333333     0.833333333
     0.666666667     0.416666667     0.916666667
     0.708333333     0.416666667     0.958333333
     0.708333333     0.458333333     0.916666667
     0.666666667     0.541666667     0.041666667
     0.708333333     0.500000000     0.041666667
     0.708333333     0.541666667     0.000000000
     0.666666667     0.500000000     0.083333333
     0.666666667     0.541666667     0.125000000
     0.708333333     0.500000000     0.125000000
     0.708333333     0.541666667     0.083333333
     0.666666667     0.541666667     0.208333333
     0.708333333     0.541666667     0.166666667
     0.666666667     0.541666667     0.291666667
     0.708333333     0.500000000     0.291666667
     0.708333333     0.541666667     0.250000000
     0.666666667     0.500000000     0.333333333
     0.708333333     0.500000000     0.375000000
     0.666666667     0.500000000     0.416666667
     0.708333333     0.500000000     0.458333333
     0.708333333     0.541666667     0.416666667
     0.666666667     0.500000000     0.500000000
     0.666666667     0.541666667     0.541666667
     0.708333333     0.500000000     0.541666667
     0.666666667     0.500000000     0.583333333
     0.666666667     0.541666667     0.625000000
     0.708333333     0.500000000     0.625000000
     0.666666667     0.541666667     0.708333333
     0.666666667     0.500000000     0.750000000
     0.666666667     0.541666667     0.791666667
     0.708333333     0.500000000     0.791666667
     0.708333333     0.541666667     0.750000000
     0.666666667     0.500000000     0.833333333
     0.666666667     0.541666667     0.875000000
     0.708333333     0.500000000     0.875000000
     0.708333333     0.541666667     0.833333333
     0.666666667     0.500000000     0.916666667
     0.708333333     0.541666667     0.916666667
     0.666666667     0.583333333     0.000000000
     0.666666667     0.625000000     0.041666667
     0.708333333     0.583333333     0.041666667
     0.708333333     0.625000000     0.000000000
     0.666666667     0.625000000     0.125000000
     0.666666667     0.583333333     0.166666667
     0.666666667     0.625000000     0.208333333
     0.708333333     0.583333333     0.208333333
     0.666666667     0.625000000     0.291666667
     0.708333333     0.583333333     0.291666667
     0.708333333     0.625000000     0.250000000
     0.666666667     0.583333333     0.333333333
     0.666666667     0.625000000     0.375000000
     0.708333333     0.583333333     0.375000000
     0.708333333     0.625000000     0.333333333
     0.666666667     0.583333333     0.416666667
     0.708333333     0.583333333     0.458333333
     0.708333333     0.625000000     0.416666667
     0.708333333     0.625000000     0.500000000
     0.666666667     0.583333333     0.583333333
     0.708333333     0.625000000     0.583333333
     0.666666667     0.583333333     0.666666667
     0.666666667     0.625000000     0.708333333
     0.708333333     0.583333333     0.708333333
     0.666666667     0.583333333     0.750000000
     0.666666667     0.625000000     0.791666667
     0.708333333     0.625000000     0.750000000
     0.666666667     0.583333333     0.833333333
     0.708333333     0.583333333     0.875000000
     0.708333333     0.625000000     0.833333333
     0.666666667     0.583333333     0.916666667
     0.708333333     0.583333333     0.958333333
     0.666666667     0.666666667     0.000000000
     0.666666667     0.708333333     0.041666667
     0.666666667     0.708333333     0.125000000
     0.708333333     0.666666667     0.125000000
     0.708333333     0.708333333     0.083333333
     0.666666667     0.708333333     0.208333333
     0.708333333     0.666666667     0.208333333
     0.666666667     0.666666667     0.250000000
     0.708333333     0.666666667     0.291666667
     0.708333333     0.708333333     0.250000000
     0.666666667     0.666666667     0.333333333
     0.666666667     0.708333333     0.375000000
     0.666666667     0.666666667     0.416666667
     0.708333333     0.666666667     0.458333333
     0.708333333     0.708333333     0.416666667
     0.666666667     0.666666667     0.500000000
     0.708333333     0.666666667     0.541666667
     0.708333333     0.708333333     0.500000000
     0.666666667     0.666666667     0.583333333
     0.666666667     0.708333333     0.625000000
     0.708333333     0.666666667     0.625000000
     0.708333333     0.708333333     0.583333333
     0.708333333     0.666666667     0.708333333
     0.708333333     0.708333333     0.666666667
     0.666666667     0.666666667     0.750000000
     0.666666667     0.708333333     0.791666667
     0.708333333     0.666666667     0.791666667
     0.666666667     0.666666667     0.833333333
     0.666666667     0.708333333     0.875000000
     0.708333333     0.666666667     0.875000000
     0.708333333     0.708333333     0.833333333
     0.666666667     0.708333333     0.958333333
     0.708333333     0.708333333     0.916666667
     0.666666667     0.750000000     0.000000000
     0.666666667     0.791666667     0.041666667
     0.708333333     0.791666667     0.000000000
     0.666666667     0.791666667     0.125000000
     0.708333333     0.750000000     0.125000000
     0.708333333     0.791666667     0.083333333
     0.666666667     0.750000000     0.166666667
     0.666666667     0.791666667     0.208333333
     0.708333333     0.791666667     0.166666667
     0.666666667     0.791666667     0.291666667
     0.708333333     0.750000000     0.291666667
     0.666666667     0.750000000     0.333333333
     0.708333333     0.791666667     0.333333333
     0.666666667     0.750000000     0.416666667
     0.666666667     0.791666667     0.458333333
     0.708333333     0.750000000     0.458333333
     0.708333333     0.791666667     0.416666667
     0.708333333     0.791666667     0.500000000
     0.666666667     0.750000000     0.583333333
     0.666666667     0.791666667     0.625000000
     0.708333333     0.750000000     0.625000000
     0.708333333     0.791666667     0.583333333
     0.666666667     0.791666667     0.708333333
     0.708333333     0.750000000     0.708333333
     0.708333333     0.791666667     0.666666667
     0.666666667     0.791666667     0.791666667
     0.708333333     0.750000000     0.791666667
     0.708333333     0.791666667     0.750000000
     0.666666667     0.791666667     0.875000000
     0.708333333     0.791666667     0.833333333
     0.666666667     0.750000000     0.916666667
     0.666666667     0.791666667     0.958333333
     0.708333333     0.750000000     0.958333333
     0.708333333     0.791666667     0.916666667
     0.666666667     0.833333333     0.000000000
     0.708333333     0.833333333     0.041666667
     0.708333333     0.875000000     0.000000000
     0.666666667     0.833333333     0.083333333
     0.666666667     0.875000000     0.125000000
     0.666666667     0.833333333     0.166666667
     0.666666667     0.875000000     0.208333333
     0.708333333     0.833333333     0.208333333
     0.666666667     0.833333333     0.250000000
     0.666666667     0.875000000     0.291666667
     0.666666667     0.833333333     0.333333333
     0.708333333     0.833333333     0.375000000
     0.708333333     0.875000000     0.333333333
     0.666666667     0.833333333     0.416666667
     0.666666667     0.875000000     0.458333333
     0.666666667     0.833333333     0.500000000
     0.708333333     0.875000000     0.500000000
     0.666666667     0.833333333     0.583333333
     0.708333333     0.833333333     0.625000000
     0.666666667     0.833333333     0.666666667
     0.666666667     0.875000000     0.708333333
     0.708333333     0.833333333     0.708333333
     0.708333333     0.875000000     0.666666667
     0.666666667     0.875000000     0.791666667
     0.708333333     0.833333333     0.791666667
     0.708333333     0.875000000     0.750000000
     0.666666667     0.875000000     0.875000000
     0.708333333     0.833333333     0.875000000
     0.708333333     0.875000000     0.833333333
     0.666666667     0.833333333     0.916666667
     0.666666667     0.875000000     0.958333333
     0.708333333     0.833333333     0.958333333
     0.708333333     0.875000000     0.916666667
     0.666666667     0.916666667     0.000000000
     0.666666667     0.958333333     0.041666667
     0.708333333     0.958333333     0.000000000
     0.666666667     0.916666667     0.083333333
     0.666666667     0.958333333     0.125000000
     0.708333333     0.916666667     0.125000000
     0.708333333     0.958333333     0.083333333
     0.666666667     0.916666667     0.166666667
     0.666666667     0.958333333     0.208333333
     0.708333333     0.916666667     0.208333333
     0.708333333     0.958333333     0.166666667
     0.666666667     0.916666667     0.250000000
     0.666666667     0.958333333     0.291666667
     0.708333333     0.916666667     0.291666667
     0.708333333     0.958333333     0.250000000
     0.666666667     0.916666667     0.333333333
     0.708333333     0.916666667     0.375000000
     0.666666667     0.916666667     0.416666667
     0.666666667     0.958333333     0.458333333
     0.708333333     0.916666667     0.458333333
     0.708333333     0.958333333     0.416666667
     0.666666667     0.916666667     0.583333333
     0.666666667     0.958333333     0.625000000
     0.708333333     0.916666667     0.625000000
     0.666666667     0.916666667     0.666666667
     0.666666667     0.958333333     0.708333333
     0.708333333     0.916666667     0.708333333
     0.708333333     0.958333333     0.666666667
     0.666666667     0.916666667     0.750000000
     0.666666667     0.958333333     0.791666667
     0.708333333     0.916666667     0.791666667
     0.708333333     0.958333333     0.750000000
     0.666666667     0.958333333     0.875000000
     0.708333333     0.916666667     0.875000000
     0.708333333     0.958333333     0.916666667
     0.750000000     0.000000000     0.000000000
     0.750000000     0.041666667     0.041666667
     0.791666667     0.041666667     0.000000000
     0.750000000     0.000000000     0.083333333
     0.750000000     0.041666667     0.125000000
     0.791666667     0.000000000     0.125000000
     0.791666667     0.041666667     0.083333333
     0.750000000     0.000000000     0.166666667
     0.750000000     0.041666667     0.208333333
     0.791666667     0.000000000     0.208333333
     0.791666667     0.041666667     0.166666667
     0.791666667     0.000000000     0.291666667
     0.791666667     0.041666667     0.250000000
     0.750000000     0.000000000     0.333333333
     0.791666667     0.000000000     0.375000000
     0.791666667     0.041666667     0.333333333
     0.750000000     0.000000000     0.416666667
     0.791666667     0.000000000     0.458333333
     0.791666667     0.041666667     0.416666667
     0.750000000     0.000000000     0.500000000
     0.750000000     0.041666667     0.541666667
     0.791666667     0.000000000     0.541666667
     0.750000000     0.041666667     0.625000000
     0.791666667     0.000000000     0.625000000
     0.791666667     0.041666667     0.583333333
     0.750000000     0.000000000     0.666666667
     0.750000000     0.041666667     0.708333333
     0.791666667     0.000000000     0.708333333
     0.791666667     0.041666667     0.666666667
     0.750000000     0.000000000     0.750000000
     0.791666667     0.041666667     0.750000000
     0.750000000     0.000000000     0.833333333
     0.750000000     0.041666667     0.875000000
     0.791666667     0.000000000     0.875000000
     0.750000000     0.000000000     0.916666667
     0.791666667     0.000000000     0.958333333
     0.750000000     0.083333333     0.000000000
     0.750000000     0.125000000     0.041666667
     0.791666667     0.083333333     0.041666667
     0.791666667     0.125000000     0.000000000
     0.750000000     0.125000000     0.125000000
     0.791666667     0.083333333     0.125000000
     0.791666667     0.125000000     0.083333333
     0.750000000     0.125000000     0.208333333
     0.791666667     0.083333333     0.208333333
     0.791666667     0.125000000     0.166666667
     0.750000000     0.083333333     0.250000000
     0.750000000     0.125000000     0.291666667
     0.791666667     0.083333333     0.291666667
     0.750000000     0.083333333     0.333333333
     0.750000000     0.125000000     0.375000000
     0.791666667     0.083333333     0.375000000
     0.791666667     0.125000000     0.333333333
     0.750000000     0.083333333     0.416666667
     0.791666667     0.083333333     0.458333333
     0.791666667     0.125000000     0.416666667
     0.750000000     0.083333333     0.500000000
     0.791666667     0.083333333     0.541666667
     0.791666667     0.125000000     0.500000000
     0.750000000     0.125000000     0.625000000
     0.791666667     0.083333333     0.625000000
     0.750000000     0.083333333     0.666666667
     0.750000000     0.125000000     0.708333333
     0.791666667     0.083333333     0.708333333
     0.791666667     0.125000000     0.666666667
     0.750000000     0.083333333     0.750000000
     0.791666667     0.083333333     0.791666667
     0.750000000     0.125000000     0.875000000
     0.791666667     0.083333333     0.875000000
     0.791666667     0.125000000     0.833333333
     0.750000000     0.083333333     0.916666667
     0.791666667     0.083333333     0.958333333
     0.791666667     0.125000000     0.916666667
     0.750000000     0.166666667     0.000000000
     0.750000000     0.208333333     0.041666667
     0.791666667     0.166666667     0.041666667
     0.750000000     0.208333333     0.125000000
     0.791666667     0.208333333     0.083333333
     0.750000000     0.208333333     0.208333333
     0.791666667     0.166666667     0.208333333
     0.750000000     0.166666667     0.250000000
     0.750000000     0.208333333     0.291666667
     0.791666667     0.208333333     0.250000000
     0.750000000     0.166666667     0.333333333
     0.750000000     0.208333333     0.375000000
     0.791666667     0.166666667     0.375000000
     0.791666667     0.208333333     0.333333333
     0.750000000     0.166666667     0.416666667
     0.791666667     0.166666667     0.458333333
     0.791666667     0.208333333     0.416666667
     0.750000000     0.166666667     0.500000000
     0.750000000     0.166666667     0.583333333
     0.750000000     0.208333333     0.625000000
     0.791666667     0.166666667     0.625000000
     0.750000000     0.208333333     0.708333333
     0.791666667     0.166666667     0.708333333
     0.791666667     0.208333333     0.666666667
     0.750000000     0.208333333     0.791666667
     0.791666667     0.208333333     0.750000000
     0.750000000     0.166666667     0.833333333
     0.750000000     0.208333333     0.875000000
     0.791666667     0.166666667     0.875000000
     0.791666667     0.208333333     0.833333333
     0.750000000     0.166666667     0.916666667
     0.791666667     0.166666667     0.958333333
     0.791666667     0.208333333     0.916666667
     0.750000000     0.250000000     0.000000000
     0.750000000     0.291666667     0.041666667
     0.791666667     0.291666667     0.000000000
     0.750000000     0.250000000     0.083333333
     0.791666667     0.250000000     0.125000000
     0.791666667     0.291666667     0.083333333
     0.750000000     0.250000000     0.166666667
     0.791666667     0.291666667     0.166666667
     0.791666667     0.250000000     0.291666667
     0.791666667     0.291666667     0.250000000
     0.750000000     0.250000000     0.333333333
     0.750000000     0.291666667     0.375000000
     0.791666667     0.250000000     0.375000000
     0.791666667     0.291666667     0.333333333
     0.791666667     0.250000000     0.458333333
     0.791666667     0.291666667     0.416666667
     0.791666667     0.250000000     0.541666667
     0.791666667     0.291666667     0.500000000
     0.750000000     0.291666667     0.625000000
     0.791666667     0.250000000     0.625000000
     0.791666667     0.291666667     0.583333333
     0.750000000     0.250000000     0.666666667
     0.750000000     0.291666667     0.708333333
     0.791666667     0.291666667     0.666666667
     0.750000000     0.250000000     0.750000000
     0.750000000     0.291666667     0.791666667
     0.791666667     0.250000000     0.791666667
     0.791666667     0.291666667     0.750000000
     0.750000000     0.250000000     0.833333333
     0.750000000     0.291666667     0.875000000
     0.750000000     0.250000000     0.916666667
     0.791666667     0.250000000     0.958333333
     0.791666667     0.291666667     0.916666667
     0.750000000     0.375000000     0.041666667
     0.750000000     0.333333333     0.083333333
     0.750000000     0.375000000     0.125000000
     0.791666667     0.333333333     0.125000000
     0.791666667     0.375000000     0.083333333
     0.750000000     0.333333333     0.166666667
     0.750000000     0.375000000     0.208333333
     0.791666667     0.333333333     0.208333333
     0.791666667     0.375000000     0.166666667
     0.750000000     0.375000000     0.291666667
     0.791666667     0.333333333     0.291666667
     0.791666667     0.375000000     0.250000000
     0.750000000     0.375000000     0.375000000
     0.750000000     0.333333333     0.416666667
     0.750000000     0.375000000     0.458333333
     0.791666667     0.375000000     0.416666667
     0.750000000     0.333333333     0.500000000
     0.750000000     0.375000000     0.541666667
     0.791666667     0.333333333     0.541666667
     0.791666667     0.375000000     0.500000000
     0.750000000     0.333333333     0.583333333
     0.750000000     0.375000000     0.625000000
     0.791666667     0.333333333     0.625000000
     0.791666667     0.375000000     0.583333333
     0.750000000     0.333333333     0.666666667
     0.791666667     0.375000000     0.666666667
     0.750000000     0.333333333     0.750000000
     0.750000000     0.375000000     0.791666667
     0.791666667     0.375000000     0.750000000
     0.750000000     0.333333333     0.833333333
     0.750000000     0.375000000     0.875000000
     0.791666667     0.333333333     0.875000000
     0.791666667     0.375000000     0.833333333
     0.750000000     0.333333333     0.916666667
     0.750000000     0.375000000     0.958333333
     0.791666667     0.375000000     0.916666667
     0.750000000     0.416666667     0.000000000
     0.791666667     0.416666667     0.041666667
     0.791666667     0.458333333     0.000000000
     0.791666667     0.416666667     0.125000000
     0.791666667     0.458333333     0.083333333
     0.750000000     0.458333333     0.208333333
     0.791666667     0.416666667     0.208333333
     0.791666667     0.458333333     0.166666667
     0.750000000     0.416666667     0.250000000
     0.750000000     0.458333333     0.291666667
     0.791666667     0.458333333     0.250000000
     0.750000000     0.416666667     0.333333333
     0.791666667     0.416666667     0.375000000
     0.791666667     0.458333333     0.333333333
     0.750000000     0.416666667     0.416666667
     0.750000000     0.458333333     0.458333333
     0.791666667     0.416666667     0.458333333
     0.791666667     0.458333333     0.416666667
     0.750000000     0.416666667     0.500000000
     0.791666667     0.416666667     0.541666667
     0.791666667     0.416666667     0.625000000
     0.791666667     0.458333333     0.583333333
     0.750000000     0.416666667     0.666666667
     0.750000000     0.458333333     0.708333333
     0.791666667     0.416666667     0.708333333
     0.791666667     0.458333333     0.666666667
     0.750000000     0.416666667     0.750000000
     0.750000000     0.458333333     0.791666667
     0.791666667     0.416666667     0.791666667
     0.750000000     0.416666667     0.833333333
     0.750000000     0.458333333     0.875000000
     0.791666667     0.416666667     0.875000000
     0.791666667     0.458333333     0.833333333
     0.750000000     0.416666667     0.916666667
     0.791666667     0.416666667     0.958333333
     0.750000000     0.500000000     0.000000000
     0.750000000     0.541666667     0.041666667
     0.791666667     0.500000000     0.041666667
     0.750000000     0.500000000     0.083333333
     0.750000000     0.541666667     0.125000000
     0.791666667     0.500000000     0.125000000
     0.791666667     0.541666667     0.083333333
     0.750000000     0.541666667     0.208333333
     0.791666667     0.500000000     0.208333333
     0.791666667     0.541666667     0.166666667
     0.750000000     0.541666667     0.291666667
     0.791666667     0.500000000     0.291666667
     0.791666667     0.541666667     0.250000000
     0.750000000     0.541666667     0.375000000
     0.791666667     0.500000000     0.375000000
     0.750000000     0.500000000     0.416666667
     0.750000000     0.541666667     0.458333333
     0.791666667     0.500000000     0.458333333
     0.750000000     0.500000000     0.500000000
     0.750000000     0.541666667     0.541666667
     0.791666667     0.500000000     0.541666667
     0.791666667     0.541666667     0.500000000
     0.791666667     0.500000000     0.625000000
     0.791666667     0.541666667     0.583333333
     0.750000000     0.500000000     0.666666667
     0.750000000     0.541666667     0.708333333
     0.791666667     0.500000000     0.708333333
     0.791666667     0.541666667     0.666666667
     0.750000000     0.500000000     0.750000000
     0.750000000     0.541666667     0.791666667
     0.791666667     0.500000000     0.791666667
     0.791666667     0.541666667     0.750000000
     0.750000000     0.500000000     0.833333333
     0.750000000     0.541666667     0.875000000
     0.791666667     0.541666667     0.833333333
     0.750000000     0.500000000     0.916666667
     0.791666667     0.500000000     0.958333333
     0.791666667     0.541666667     0.916666667
     0.750000000     0.583333333     0.000000000
     0.750000000     0.625000000     0.041666667
     0.791666667     0.583333333     0.041666667
     0.791666667     0.625000000     0.000000000
     0.750000000     0.583333333     0.083333333
     0.750000000     0.625000000     0.125000000
     0.791666667     0.583333333     0.125000000
     0.791666667     0.625000000     0.083333333
     0.750000000     0.583333333     0.166666667
     0.791666667     0.583333333     0.208333333
     0.791666667     0.625000000     0.166666667
     0.750000000     0.583333333     0.250000000
     0.791666667     0.583333333     0.291666667
     0.791666667     0.625000000     0.250000000
     0.750000000     0.583333333     0.333333333
     0.791666667     0.583333333     0.375000000
     0.791666667     0.625000000     0.333333333
     0.750000000     0.583333333     0.416666667
     0.750000000     0.625000000     0.458333333
     0.791666667     0.625000000     0.416666667
     0.791666667     0.583333333     0.541666667
     0.791666667     0.625000000     0.500000000
     0.750000000     0.583333333     0.583333333
     0.791666667     0.583333333     0.625000000
     0.791666667     0.625000000     0.583333333
     0.750000000     0.583333333     0.666666667
     0.750000000     0.625000000     0.708333333
     0.791666667     0.583333333     0.708333333
     0.791666667     0.625000000     0.666666667
     0.750000000     0.583333333     0.750000000
     0.750000000     0.625000000     0.791666667
     0.791666667     0.625000000     0.750000000
     0.750000000     0.583333333     0.833333333
     0.750000000     0.625000000     0.875000000
     0.791666667     0.583333333     0.875000000
     0.750000000     0.583333333     0.916666667
     0.750000000     0.625000000     0.958333333
     0.791666667     0.625000000     0.916666667
     0.750000000     0.666666667     0.000000000
     0.750000000     0.708333333     0.041666667
     0.791666667     0.666666667     0.041666667
     0.791666667     0.708333333     0.000000000
     0.750000000     0.666666667     0.083333333
     0.791666667     0.708333333     0.083333333
     0.750000000     0.666666667     0.166666667
     0.791666667     0.666666667     0.208333333
     0.791666667     0.708333333     0.166666667
     0.750000000     0.708333333     0.291666667
     0.791666667     0.666666667     0.291666667
     0.791666667     0.708333333     0.250000000
     0.750000000     0.666666667     0.333333333
     0.750000000     0.708333333     0.375000000
     0.791666667     0.666666667     0.375000000
     0.791666667     0.708333333     0.333333333
     0.750000000     0.708333333     0.458333333
     0.791666667     0.666666667     0.458333333
     0.791666667     0.708333333     0.416666667
     0.750000000     0.666666667     0.500000000
     0.750000000     0.708333333     0.541666667
     0.791666667     0.666666667     0.541666667
     0.791666667     0.708333333     0.500000000
     0.750000000     0.666666667     0.583333333
     0.750000000     0.708333333     0.625000000
     0.791666667     0.666666667     0.625000000
     0.750000000     0.708333333     0.708333333
     0.791666667     0.666666667     0.708333333
     0.791666667     0.708333333     0.666666667
     0.791666667     0.666666667     0.791666667
     0.750000000     0.708333333     0.875000000
     0.791666667     0.666666667     0.875000000
     0.750000000     0.666666667     0.916666667
     0.750000000     0.708333333     0.958333333
     0.791666667     0.666666667     0.958333333
     0.750000000     0.750000000     0.000000000
     0.750000000     0.791666667     0.041666667
     0.791666667     0.750000000     0.041666667
     0.791666667     0.791666667     0.000000000
     0.750000000     0.750000000     0.083333333
     0.791666667     0.791666667     0.083333333
     0.750000000     0.750000000     0.166666667
     0.750000000     0.791666667     0.208333333
     0.791666667     0.750000000     0.208333333
     0.791666667     0.791666667     0.166666667
     0.750000000     0.750000000     0.250000000
     0.791666667     0.791666667     0.250000000
     0.750000000     0.750000000     0.333333333
     0.750000000     0.791666667     0.375000000
     0.791666667     0.750000000     0.375000000
     0.791666667     0.791666667     0.333333333
     0.750000000     0.750000000     0.416666667
     0.791666667     0.750000000     0.458333333
     0.750000000     0.750000000     0.500000000
     0.791666667     0.750000000     0.541666667
     0.791666667     0.791666667     0.500000000
     0.750000000     0.750000000     0.583333333
     0.750000000     0.791666667     0.625000000
     0.791666667     0.791666667     0.583333333
     0.750000000     0.750000000     0.666666667
     0.750000000     0.791666667     0.708333333
     0.791666667     0.750000000     0.708333333
     0.791666667     0.791666667     0.666666667
     0.750000000     0.750000000     0.750000000
     0.750000000     0.791666667     0.791666667
     0.791666667     0.791666667     0.750000000
     0.750000000     0.750000000     0.833333333
     0.750000000     0.791666667     0.875000000
     0.791666667     0.750000000     0.875000000
     0.791666667     0.791666667     0.833333333
     0.750000000     0.750000000     0.916666667
     0.750000000     0.791666667     0.958333333
     0.791666667     0.750000000     0.958333333
     0.750000000     0.833333333     0.000000000
     0.750000000     0.875000000     0.041666667
     0.791666667     0.833333333     0.041666667
     0.791666667     0.875000000     0.000000000
     0.750000000     0.833333333     0.083333333
     0.750000000     0.875000000     0.125000000
     0.791666667     0.833333333     0.125000000
     0.791666667     0.875000000     0.083333333
     0.750000000     0.833333333     0.166666667
     0.750000000     0.875000000     0.208333333
     0.750000000     0.833333333     0.250000000
     0.750000000     0.875000000     0.291666667
     0.791666667     0.875000000     0.250000000
     0.750000000     0.833333333     0.333333333
     0.750000000     0.875000000     0.375000000
     0.791666667     0.875000000     0.333333333
     0.750000000     0.833333333     0.416666667
     0.750000000     0.875000000     0.458333333
     0.791666667     0.875000000     0.416666667
     0.750000000     0.875000000     0.541666667
     0.750000000     0.875000000     0.625000000
     0.791666667     0.833333333     0.625000000
     0.791666667     0.875000000     0.583333333
     0.750000000     0.833333333     0.666666667
     0.750000000     0.875000000     0.708333333
     0.791666667     0.833333333     0.708333333
     0.791666667     0.875000000     0.666666667
     0.750000000     0.833333333     0.750000000
     0.750000000     0.875000000     0.791666667
     0.791666667     0.875000000     0.750000000
     0.750000000     0.833333333     0.833333333
     0.750000000     0.875000000     0.875000000
     0.791666667     0.833333333     0.875000000
     0.750000000     0.875000000     0.958333333
     0.791666667     0.833333333     0.958333333
     0.791666667     0.875000000     0.916666667
     0.750000000     0.916666667     0.000000000
     0.750000000     0.958333333     0.041666667
     0.791666667     0.916666667     0.041666667
     0.750000000     0.916666667     0.083333333
     0.750000000     0.958333333     0.125000000
     0.750000000     0.958333333     0.208333333
     0.791666667     0.958333333     0.166666667
     0.750000000     0.916666667     0.250000000
     0.791666667     0.916666667     0.291666667
     0.750000000     0.916666667     0.333333333
     0.791666667     0.916666667     0.375000000
     0.750000000     0.916666667     0.416666667
     0.750000000     0.958333333     0.458333333
     0.791666667     0.916666667     0.458333333
     0.791666667     0.958333333     0.416666667
     0.750000000     0.916666667     0.500000000
     0.750000000     0.958333333     0.541666667
     0.791666667     0.916666667     0.541666667
     0.791666667     0.958333333     0.500000000
     0.750000000     0.916666667     0.583333333
     0.750000000     0.958333333     0.625000000
     0.791666667     0.916666667     0.625000000
     0.791666667     0.958333333     0.583333333
     0.750000000     0.958333333     0.708333333
     0.791666667     0.916666667     0.708333333
     0.791666667     0.958333333     0.666666667
     0.750000000     0.916666667     0.750000000
     0.750000000     0.958333333     0.791666667
     0.791666667     0.958333333     0.750000000
     0.750000000     0.916666667     0.833333333
     0.750000000     0.958333333     0.875000000
     0.791666667     0.916666667     0.875000000
     0.791666667     0.958333333     0.833333333
     0.750000000     0.916666667     0.916666667
     0.750000000     0.958333333     0.958333333
     0.791666667     0.958333333     0.916666667
     0.833333333     0.000000000     0.000000000
     0.833333333     0.041666667     0.041666667
     0.875000000     0.000000000     0.041666667
     0.875000000     0.041666667     0.000000000
     0.833333333     0.000000000     0.083333333
     0.833333333     0.041666667     0.125000000
     0.875000000     0.000000000     0.125000000
     0.875000000     0.041666667     0.083333333
     0.833333333     0.041666667     0.208333333
     0.875000000     0.000000000     0.208333333
     0.875000000     0.041666667     0.250000000
     0.833333333     0.041666667     0.375000000
     0.875000000     0.000000000     0.375000000
     0.833333333     0.000000000     0.416666667
     0.833333333     0.041666667     0.458333333
     0.875000000     0.000000000     0.458333333
     0.875000000     0.041666667     0.416666667
     0.833333333     0.000000000     0.500000000
     0.833333333     0.041666667     0.541666667
     0.875000000     0.041666667     0.500000000
     0.833333333     0.000000000     0.583333333
     0.833333333     0.041666667     0.625000000
     0.875000000     0.000000000     0.625000000
     0.833333333     0.000000000     0.666666667
     0.833333333     0.041666667     0.708333333
     0.875000000     0.000000000     0.708333333
     0.875000000     0.041666667     0.666666667
     0.833333333     0.041666667     0.791666667
     0.875000000     0.000000000     0.791666667
     0.833333333     0.000000000     0.833333333
     0.833333333     0.041666667     0.875000000
     0.833333333     0.000000000     0.916666667
     0.833333333     0.041666667     0.958333333
     0.875000000     0.000000000     0.958333333
     0.833333333     0.083333333     0.000000000
     0.833333333     0.125000000     0.041666667
     0.875000000     0.083333333     0.041666667
     0.833333333     0.125000000     0.125000000
     0.875000000     0.125000000     0.083333333
     0.833333333     0.083333333     0.166666667
     0.833333333     0.125000000     0.208333333
     0.875000000     0.083333333     0.208333333
     0.875000000     0.125000000     0.166666667
     0.833333333     0.083333333     0.250000000
     0.875000000     0.083333333     0.291666667
     0.875000000     0.125000000     0.250000000
     0.833333333     0.083333333     0.333333333
     0.875000000     0.125000000     0.333333333
     0.833333333     0.083333333     0.416666667
     0.833333333     0.125000000     0.458333333
     0.875000000     0.083333333     0.458333333
     0.875000000     0.125000000     0.416666667
     0.833333333     0.083333333     0.500000000
     0.875000000     0.083333333     0.541666667
     0.833333333     0.083333333     0.583333333
     0.833333333     0.125000000     0.625000000
     0.875000000     0.083333333     0.625000000
     0.875000000     0.125000000     0.583333333
     0.833333333     0.083333333     0.666666667
     0.833333333     0.125000000     0.708333333
     0.833333333     0.083333333     0.750000000
     0.875000000     0.083333333     0.791666667
     0.833333333     0.083333333     0.833333333
     0.833333333     0.125000000     0.875000000
     0.875000000     0.125000000     0.833333333
     0.833333333     0.083333333     0.916666667
     0.833333333     0.125000000     0.958333333
     0.875000000     0.083333333     0.958333333
     0.833333333     0.166666667     0.000000000
     0.875000000     0.166666667     0.041666667
     0.875000000     0.208333333     0.000000000
     0.833333333     0.208333333     0.125000000
     0.875000000     0.208333333     0.083333333
     0.833333333     0.166666667     0.166666667
     0.833333333     0.208333333     0.208333333
     0.875000000     0.166666667     0.208333333
     0.833333333     0.166666667     0.250000000
     0.833333333     0.208333333     0.291666667
     0.875000000     0.208333333     0.250000000
     0.833333333     0.166666667     0.333333333
     0.833333333     0.208333333     0.375000000
     0.875000000     0.166666667     0.375000000
     0.875000000     0.208333333     0.333333333
     0.833333333     0.208333333     0.458333333
     0.833333333     0.166666667     0.500000000
     0.833333333     0.208333333     0.541666667
     0.875000000     0.166666667     0.541666667
     0.833333333     0.208333333     0.625000000
     0.875000000     0.166666667     0.625000000
     0.875000000     0.208333333     0.583333333
     0.833333333     0.208333333     0.708333333
     0.875000000     0.166666667     0.708333333
     0.875000000     0.208333333     0.666666667
     0.833333333     0.166666667     0.750000000
     0.833333333     0.208333333     0.791666667
     0.875000000     0.166666667     0.791666667
     0.875000000     0.208333333     0.750000000
     0.833333333     0.166666667     0.833333333
     0.875000000     0.166666667     0.875000000
     0.875000000     0.208333333     0.833333333
     0.833333333     0.166666667     0.916666667
     0.833333333     0.208333333     0.958333333
     0.875000000     0.166666667     0.958333333
     0.875000000     0.208333333     0.916666667
     0.833333333     0.250000000     0.000000000
     0.875000000     0.250000000     0.041666667
     0.833333333     0.250000000     0.083333333
     0.833333333     0.291666667     0.125000000
     0.875000000     0.291666667     0.083333333
     0.833333333     0.250000000     0.166666667
     0.875000000     0.250000000     0.208333333
     0.833333333     0.250000000     0.250000000
     0.833333333     0.291666667     0.291666667
     0.875000000     0.250000000     0.291666667
     0.875000000     0.291666667     0.250000000
     0.833333333     0.291666667     0.375000000
     0.875000000     0.291666667     0.333333333
     0.833333333     0.250000000     0.416666667
     0.833333333     0.291666667     0.458333333
     0.875000000     0.250000000     0.458333333
     0.875000000     0.291666667     0.416666667
     0.833333333     0.250000000     0.500000000
     0.875000000     0.250000000     0.541666667
     0.875000000     0.250000000     0.625000000
     0.833333333     0.250000000     0.666666667
     0.833333333     0.250000000     0.750000000
     0.875000000     0.250000000     0.791666667
     0.875000000     0.291666667     0.750000000
     0.833333333     0.250000000     0.833333333
     0.875000000     0.250000000     0.875000000
     0.875000000     0.291666667     0.833333333
     0.833333333     0.291666667     0.958333333
     0.875000000     0.250000000     0.958333333
     0.833333333     0.375000000     0.041666667
     0.875000000     0.333333333     0.041666667
     0.875000000     0.375000000     0.000000000
     0.833333333     0.333333333     0.083333333
     0.833333333     0.375000000     0.125000000
     0.875000000     0.333333333     0.125000000
     0.875000000     0.375000000     0.083333333
     0.833333333     0.333333333     0.166666667
     0.833333333     0.375000000     0.208333333
     0.875000000     0.375000000     0.166666667
     0.833333333     0.375000000     0.291666667
     0.875000000     0.333333333     0.291666667
     0.875000000     0.375000000     0.250000000
     0.833333333     0.333333333     0.333333333
     0.833333333     0.375000000     0.375000000
     0.875000000     0.333333333     0.375000000
     0.833333333     0.333333333     0.416666667
     0.875000000     0.333333333     0.458333333
     0.875000000     0.375000000     0.416666667
     0.833333333     0.333333333     0.500000000
     0.833333333     0.375000000     0.541666667
     0.875000000     0.333333333     0.541666667
     0.875000000     0.375000000     0.500000000
     0.833333333     0.333333333     0.583333333
     0.833333333     0.375000000     0.625000000
     0.875000000     0.375000000     0.583333333
     0.833333333     0.375000000     0.708333333
     0.875000000     0.375000000     0.666666667
     0.833333333     0.333333333     0.750000000
     0.833333333     0.375000000     0.791666667
     0.833333333     0.333333333     0.833333333
     0.833333333     0.375000000     0.875000000
     0.875000000     0.333333333     0.875000000
     0.875000000     0.375000000     0.833333333
     0.833333333     0.333333333     0.916666667
     0.833333333     0.375000000     0.958333333
     0.875000000     0.333333333     0.958333333
     0.875000000     0.375000000     0.916666667
     0.833333333     0.416666667     0.000000000
     0.833333333     0.458333333     0.041666667
     0.875000000     0.416666667     0.041666667
     0.875000000     0.458333333     0.000000000
     0.833333333     0.416666667     0.083333333
     0.833333333     0.458333333     0.125000000
     0.875000000     0.416666667     0.125000000
     0.875000000     0.458333333     0.083333333
     0.833333333     0.416666667     0.166666667
     0.875000000     0.416666667     0.208333333
     0.875000000     0.458333333     0.166666667
     0.833333333     0.416666667     0.250000000
     0.875000000     0.416666667     0.291666667
     0.875000000     0.458333333     0.250000000
     0.833333333     0.458333333     0.375000000
     0.875000000     0.416666667     0.375000000
     0.875000000     0.458333333     0.333333333
     0.833333333     0.458333333     0.458333333
     0.875000000     0.416666667     0.458333333
     0.875000000     0.458333333     0.416666667
     0.833333333     0.416666667     0.500000000
     0.833333333     0.458333333     0.541666667
     0.875000000     0.458333333     0.500000000
     0.833333333     0.458333333     0.625000000
     0.875000000     0.416666667     0.625000000
     0.875000000     0.458333333     0.583333333
     0.833333333     0.416666667     0.666666667
     0.875000000     0.416666667     0.708333333
     0.833333333     0.416666667     0.750000000
     0.833333333     0.458333333     0.791666667
     0.875000000     0.416666667     0.791666667
     0.875000000     0.458333333     0.750000000
     0.833333333     0.416666667     0.833333333
     0.833333333     0.458333333     0.875000000
     0.875000000     0.416666667     0.875000000
     0.875000000     0.458333333     0.833333333
     0.833333333     0.416666667     0.916666667
     0.833333333     0.458333333     0.958333333
     0.875000000     0.416666667     0.958333333
     0.875000000     0.458333333     0.916666667
     0.833333333     0.500000000     0.000000000
     0.833333333     0.541666667     0.041666667
     0.875000000     0.500000000     0.041666667
     0.833333333     0.500000000     0.083333333
     0.833333333     0.541666667     0.125000000
     0.875000000     0.500000000     0.125000000
     0.833333333     0.500000000     0.166666667
     0.833333333     0.541666667     0.208333333
     0.875000000     0.500000000     0.208333333
     0.875000000     0.541666667     0.166666667
     0.833333333     0.500000000     0.250000000
     0.833333333     0.541666667     0.291666667
     0.875000000     0.500000000     0.291666667
     0.875000000     0.541666667     0.250000000
     0.833333333     0.500000000     0.333333333
     0.875000000     0.500000000     0.375000000
     0.833333333     0.500000000     0.416666667
     0.833333333     0.541666667     0.458333333
     0.875000000     0.500000000     0.458333333
     0.833333333     0.500000000     0.500000000
     0.833333333     0.541666667     0.541666667
     0.875000000     0.500000000     0.541666667
     0.875000000     0.541666667     0.500000000
     0.833333333     0.541666667     0.625000000
     0.875000000     0.500000000     0.625000000
     0.875000000     0.541666667     0.583333333
     0.833333333     0.500000000     0.666666667
     0.833333333     0.541666667     0.708333333
     0.875000000     0.541666667     0.666666667
     0.833333333     0.500000000     0.750000000
     0.833333333     0.541666667     0.791666667
     0.875000000     0.541666667     0.750000000
     0.833333333     0.541666667     0.875000000
     0.875000000     0.500000000     0.875000000
     0.875000000     0.541666667     0.833333333
     0.833333333     0.500000000     0.916666667
     0.875000000     0.500000000     0.958333333
     0.875000000     0.541666667     0.916666667
     0.833333333     0.583333333     0.000000000
     0.833333333     0.625000000     0.041666667
     0.875000000     0.583333333     0.041666667
     0.875000000     0.625000000     0.000000000
     0.833333333     0.583333333     0.083333333
     0.833333333     0.625000000     0.125000000
     0.833333333     0.583333333     0.166666667
     0.833333333     0.625000000     0.208333333
     0.875000000     0.583333333     0.208333333
     0.875000000     0.625000000     0.166666667
     0.833333333     0.583333333     0.250000000
     0.875000000     0.583333333     0.291666667
     0.833333333     0.583333333     0.333333333
     0.833333333     0.625000000     0.375000000
     0.875000000     0.583333333     0.375000000
     0.875000000     0.625000000     0.333333333
     0.833333333     0.583333333     0.416666667
     0.833333333     0.625000000     0.458333333
     0.875000000     0.583333333     0.458333333
     0.875000000     0.625000000     0.416666667
     0.833333333     0.583333333     0.500000000
     0.833333333     0.625000000     0.541666667
     0.875000000     0.625000000     0.500000000
     0.833333333     0.625000000     0.625000000
     0.875000000     0.625000000     0.583333333
     0.875000000     0.583333333     0.708333333
     0.875000000     0.625000000     0.666666667
     0.833333333     0.583333333     0.750000000
     0.833333333     0.625000000     0.791666667
     0.875000000     0.583333333     0.791666667
     0.833333333     0.625000000     0.875000000
     0.875000000     0.625000000     0.833333333
     0.833333333     0.583333333     0.916666667
     0.833333333     0.625000000     0.958333333
     0.875000000     0.583333333     0.958333333
     0.833333333     0.666666667     0.000000000
     0.833333333     0.708333333     0.041666667
     0.833333333     0.666666667     0.083333333
     0.833333333     0.708333333     0.125000000
     0.875000000     0.666666667     0.125000000
     0.875000000     0.708333333     0.083333333
     0.833333333     0.708333333     0.208333333
     0.875000000     0.666666667     0.208333333
     0.833333333     0.666666667     0.250000000
     0.875000000     0.666666667     0.291666667
     0.875000000     0.708333333     0.250000000
     0.833333333     0.666666667     0.333333333
     0.833333333     0.708333333     0.375000000
     0.875000000     0.666666667     0.375000000
     0.833333333     0.708333333     0.458333333
     0.875000000     0.666666667     0.458333333
     0.833333333     0.666666667     0.500000000
     0.833333333     0.708333333     0.541666667
     0.833333333     0.666666667     0.583333333
     0.833333333     0.666666667     0.666666667
     0.875000000     0.666666667     0.708333333
     0.833333333     0.708333333     0.791666667
     0.875000000     0.666666667     0.791666667
     0.875000000     0.708333333     0.750000000
     0.833333333     0.666666667     0.833333333
     0.833333333     0.708333333     0.875000000
     0.875000000     0.666666667     0.875000000
     0.833333333     0.666666667     0.916666667
     0.875000000     0.666666667     0.958333333
     0.875000000     0.708333333     0.916666667
     0.833333333     0.791666667     0.041666667
     0.875000000     0.750000000     0.041666667
     0.875000000     0.791666667     0.000000000
     0.833333333     0.791666667     0.125000000
     0.875000000     0.750000000     0.125000000
     0.875000000     0.791666667     0.083333333
     0.833333333     0.791666667     0.208333333
     0.875000000     0.791666667     0.166666667
     0.833333333     0.750000000     0.250000000
     0.833333333     0.791666667     0.291666667
     0.875000000     0.750000000     0.291666667
     0.875000000     0.791666667     0.250000000
     0.833333333     0.750000000     0.333333333
     0.833333333     0.791666667     0.375000000
     0.875000000     0.750000000     0.375000000
     0.833333333     0.750000000     0.416666667
     0.833333333     0.791666667     0.458333333
     0.875000000     0.750000000     0.458333333
     0.833333333     0.791666667     0.541666667
     0.875000000     0.750000000     0.541666667
     0.833333333     0.791666667     0.625000000
     0.875000000     0.750000000     0.625000000
     0.833333333     0.750000000     0.666666667
     0.875000000     0.750000000     0.708333333
     0.875000000     0.791666667     0.666666667
     0.875000000     0.750000000     0.791666667
     0.875000000     0.791666667     0.750000000
     0.833333333     0.750000000     0.833333333
     0.833333333     0.791666667     0.875000000
     0.875000000     0.750000000     0.875000000
     0.833333333     0.750000000     0.916666667
     0.833333333     0.791666667     0.958333333
     0.875000000     0.750000000     0.958333333
     0.833333333     0.875000000     0.041666667
     0.833333333     0.875000000     0.125000000
     0.875000000     0.833333333     0.125000000
     0.875000000     0.875000000     0.083333333
     0.833333333     0.833333333     0.166666667
     0.875000000     0.833333333     0.208333333
     0.833333333     0.833333333     0.250000000
     0.875000000     0.833333333     0.291666667
     0.875000000     0.875000000     0.250000000
     0.833333333     0.833333333     0.333333333
     0.833333333     0.875000000     0.375000000
     0.875000000     0.875000000     0.333333333
     0.833333333     0.833333333     0.416666667
     0.833333333     0.875000000     0.458333333
     0.875000000     0.833333333     0.458333333
     0.875000000     0.875000000     0.416666667
     0.833333333     0.833333333     0.500000000
     0.833333333     0.875000000     0.541666667
     0.875000000     0.833333333     0.541666667
     0.875000000     0.875000000     0.500000000
     0.833333333     0.875000000     0.625000000
     0.875000000     0.833333333     0.625000000
     0.833333333     0.833333333     0.666666667
     0.833333333     0.875000000     0.708333333
     0.875000000     0.875000000     0.666666667
     0.833333333     0.833333333     0.750000000
     0.833333333     0.875000000     0.791666667
     0.875000000     0.833333333     0.791666667
     0.875000000     0.875000000     0.750000000
     0.833333333     0.833333333     0.833333333
     0.833333333     0.875000000     0.875000000
     0.875000000     0.875000000     0.833333333
     0.833333333     0.833333333     0.916666667
     0.833333333     0.875000000     0.958333333
     0.875000000     0.833333333     0.958333333
     0.833333333     0.916666667     0.000000000
     0.833333333     0.958333333     0.041666667
     0.875000000     0.958333333     0.000000000
     0.833333333     0.958333333     0.125000000
     0.833333333     0.916666667     0.166666667
     0.875000000     0.916666667     0.208333333
     0.875000000     0.958333333     0.166666667
     0.833333333     0.958333333     0.291666667
     0.833333333     0.958333333     0.375000000
     0.833333333     0.916666667     0.416666667
     0.833333333     0.958333333     0.458333333
     0.875000000     0.958333333     0.416666667
     0.833333333     0.916666667     0.500000000
     0.833333333     0.958333333     0.541666667
     0.875000000     0.916666667     0.541666667
     0.875000000     0.958333333     0.500000000
     0.875000000     0.916666667     0.625000000
     0.833333333     0.916666667     0.666666667
     0.875000000     0.916666667     0.708333333
     0.833333333     0.958333333     0.791666667
     0.875000000     0.916666667     0.791666667
     0.833333333     0.916666667     0.833333333
     0.875000000     0.958333333     0.833333333
     0.833333333     0.958333333     0.958333333
     0.875000000     0.916666667     0.958333333
     0.875000000     0.958333333     0.916666667
     0.916666667     0.000000000     0.000000000
     0.916666667     0.041666667     0.041666667
     0.958333333     0.000000000     0.041666667
     0.958333333     0.041666667     0.000000000
     0.916666667     0.000000000     0.083333333
     0.916666667     0.041666667     0.125000000
     0.958333333     0.000000000     0.125000000
     0.958333333     0.041666667     0.083333333
     0.916666667     0.000000000     0.166666667
     0.916666667     0.041666667     0.208333333
     0.916666667     0.000000000     0.250000000
     0.916666667     0.041666667     0.291666667
     0.958333333     0.000000000     0.291666667
     0.916666667     0.041666667     0.375000000
     0.958333333     0.000000000     0.375000000
     0.958333333     0.041666667     0.333333333
     0.916666667     0.000000000     0.416666667
     0.916666667     0.041666667     0.458333333
     0.916666667     0.000000000     0.500000000
     0.916666667     0.041666667     0.541666667
     0.958333333     0.000000000     0.541666667
     0.916666667     0.000000000     0.583333333
     0.916666667     0.041666667     0.625000000
     0.958333333     0.041666667     0.583333333
     0.916666667     0.000000000     0.666666667
     0.916666667     0.041666667     0.708333333
     0.958333333     0.000000000     0.708333333
     0.958333333     0.041666667     0.666666667
     0.916666667     0.000000000     0.750000000
     0.916666667     0.041666667     0.791666667
     0.958333333     0.000000000     0.791666667
     0.958333333     0.041666667     0.750000000
     0.916666667     0.000000000     0.833333333
     0.916666667     0.041666667     0.875000000
     0.958333333     0.000000000     0.875000000
     0.958333333     0.041666667     0.833333333
     0.916666667     0.000000000     0.916666667
     0.916666667     0.041666667     0.958333333
     0.958333333     0.000000000     0.958333333
     0.958333333     0.041666667     0.916666667
     0.916666667     0.125000000     0.041666667
     0.958333333     0.083333333     0.041666667
     0.958333333     0.125000000     0.000000000
     0.916666667     0.083333333     0.083333333
     0.916666667     0.125000000     0.125000000
     0.958333333     0.083333333     0.125000000
     0.916666667     0.083333333     0.166666667
     0.916666667     0.125000000     0.208333333
     0.958333333     0.083333333     0.208333333
     0.958333333     0.125000000     0.166666667
     0.916666667     0.083333333     0.250000000
     0.958333333     0.125000000     0.250000000
     0.916666667     0.083333333     0.333333333
     0.916666667     0.125000000     0.375000000
     0.958333333     0.083333333     0.375000000
     0.958333333     0.125000000     0.333333333
     0.916666667     0.083333333     0.416666667
     0.958333333     0.125000000     0.416666667
     0.916666667     0.083333333     0.500000000
     0.916666667     0.125000000     0.541666667
     0.958333333     0.083333333     0.541666667
     0.958333333     0.125000000     0.500000000
     0.916666667     0.083333333     0.583333333
     0.916666667     0.125000000     0.625000000
     0.958333333     0.083333333     0.625000000
     0.958333333     0.125000000     0.583333333
     0.916666667     0.083333333     0.666666667
     0.916666667     0.125000000     0.708333333
     0.958333333     0.083333333     0.708333333
     0.958333333     0.125000000     0.666666667
     0.916666667     0.083333333     0.750000000
     0.958333333     0.125000000     0.750000000
     0.916666667     0.083333333     0.833333333
     0.958333333     0.083333333     0.875000000
     0.958333333     0.125000000     0.833333333
     0.916666667     0.125000000     0.958333333
     0.958333333     0.083333333     0.958333333
     0.958333333     0.125000000     0.916666667
     0.958333333     0.166666667     0.041666667
     0.958333333     0.208333333     0.000000000
     0.958333333     0.166666667     0.125000000
     0.958333333     0.208333333     0.083333333
     0.916666667     0.166666667     0.166666667
     0.916666667     0.208333333     0.208333333
     0.958333333     0.166666667     0.208333333
     0.958333333     0.208333333     0.166666667
     0.916666667     0.166666667     0.250000000
     0.916666667     0.208333333     0.291666667
     0.958333333     0.166666667     0.291666667
     0.958333333     0.208333333     0.250000000
     0.916666667     0.166666667     0.333333333
     0.916666667     0.208333333     0.375000000
     0.958333333     0.166666667     0.375000000
     0.958333333     0.208333333     0.333333333
     0.916666667     0.166666667     0.416666667
     0.958333333     0.166666667     0.458333333
     0.958333333     0.208333333     0.416666667
     0.916666667     0.166666667     0.500000000
     0.958333333     0.166666667     0.541666667
     0.958333333     0.208333333     0.500000000
     0.916666667     0.166666667     0.583333333
     0.916666667     0.208333333     0.625000000
     0.958333333     0.208333333     0.583333333
     0.958333333     0.166666667     0.708333333
     0.958333333     0.208333333     0.666666667
     0.916666667     0.166666667     0.750000000
     0.958333333     0.166666667     0.791666667
     0.958333333     0.208333333     0.750000000
     0.916666667     0.166666667     0.833333333
     0.958333333     0.166666667     0.875000000
     0.916666667     0.166666667     0.916666667
     0.916666667     0.250000000     0.000000000
     0.958333333     0.291666667     0.000000000
     0.916666667     0.291666667     0.125000000
     0.958333333     0.291666667     0.083333333
     0.916666667     0.250000000     0.166666667
     0.958333333     0.250000000     0.208333333
     0.916666667     0.250000000     0.250000000
     0.916666667     0.291666667     0.291666667
     0.958333333     0.291666667     0.250000000
     0.916666667     0.250000000     0.333333333
     0.916666667     0.291666667     0.375000000
     0.958333333     0.250000000     0.375000000
     0.958333333     0.291666667     0.333333333
     0.916666667     0.250000000     0.416666667
     0.958333333     0.250000000     0.458333333
     0.958333333     0.291666667     0.416666667
     0.916666667     0.250000000     0.500000000
     0.958333333     0.250000000     0.541666667
     0.958333333     0.291666667     0.500000000
     0.916666667     0.250000000     0.583333333
     0.916666667     0.291666667     0.625000000
     0.958333333     0.291666667     0.583333333
     0.916666667     0.250000000     0.666666667
     0.916666667     0.291666667     0.708333333
     0.958333333     0.250000000     0.708333333
     0.958333333     0.291666667     0.666666667
     0.916666667     0.291666667     0.791666667
     0.958333333     0.250000000     0.791666667
     0.958333333     0.291666667     0.750000000
     0.916666667     0.250000000     0.916666667
     0.958333333     0.291666667     0.916666667
     0.916666667     0.333333333     0.000000000
     0.916666667     0.375000000     0.041666667
     0.916666667     0.333333333     0.083333333
     0.916666667     0.375000000     0.125000000
     0.958333333     0.333333333     0.125000000
     0.958333333     0.375000000     0.083333333
     0.958333333     0.333333333     0.208333333
     0.958333333     0.375000000     0.166666667
     0.916666667     0.333333333     0.250000000
     0.916666667     0.375000000     0.291666667
     0.916666667     0.333333333     0.333333333
     0.958333333     0.333333333     0.375000000
     0.958333333     0.375000000     0.333333333
     0.958333333     0.333333333     0.458333333
     0.916666667     0.333333333     0.500000000
     0.958333333     0.333333333     0.541666667
     0.958333333     0.375000000     0.500000000
     0.916666667     0.333333333     0.583333333
     0.916666667     0.375000000     0.625000000
     0.958333333     0.375000000     0.583333333
     0.916666667     0.333333333     0.666666667
     0.916666667     0.375000000     0.708333333
     0.958333333     0.333333333     0.708333333
     0.958333333     0.375000000     0.666666667
     0.916666667     0.333333333     0.750000000
     0.916666667     0.375000000     0.791666667
     0.958333333     0.333333333     0.791666667
     0.958333333     0.375000000     0.750000000
     0.916666667     0.333333333     0.833333333
     0.916666667     0.375000000     0.875000000
     0.958333333     0.333333333     0.875000000
     0.916666667     0.333333333     0.916666667
     0.916666667     0.375000000     0.958333333
     0.958333333     0.333333333     0.958333333
     0.916666667     0.416666667     0.000000000
     0.916666667     0.458333333     0.041666667
     0.958333333     0.416666667     0.041666667
     0.958333333     0.458333333     0.000000000
     0.916666667     0.458333333     0.125000000
     0.958333333     0.416666667     0.125000000
     0.958333333     0.458333333     0.083333333
     0.916666667     0.416666667     0.166666667
     0.916666667     0.458333333     0.208333333
     0.958333333     0.416666667     0.208333333
     0.958333333     0.458333333     0.166666667
     0.916666667     0.458333333     0.291666667
     0.958333333     0.416666667     0.291666667
     0.958333333     0.458333333     0.250000000
     0.916666667     0.458333333     0.375000000
     0.958333333     0.416666667     0.375000000
     0.958333333     0.458333333     0.333333333
     0.916666667     0.416666667     0.416666667
     0.916666667     0.458333333     0.458333333
     0.958333333     0.458333333     0.416666667
     0.916666667     0.458333333     0.541666667
     0.958333333     0.458333333     0.500000000
     0.916666667     0.458333333     0.625000000
     0.958333333     0.416666667     0.625000000
     0.958333333     0.458333333     0.583333333
     0.916666667     0.416666667     0.666666667
     0.916666667     0.458333333     0.708333333
     0.958333333     0.458333333     0.666666667
     0.916666667     0.416666667     0.750000000
     0.916666667     0.458333333     0.791666667
     0.958333333     0.416666667     0.791666667
     0.958333333     0.458333333     0.750000000
     0.916666667     0.416666667     0.833333333
     0.916666667     0.458333333     0.875000000
     0.958333333     0.416666667     0.875000000
     0.958333333     0.458333333     0.833333333
     0.916666667     0.416666667     0.916666667
     0.916666667     0.458333333     0.958333333
     0.958333333     0.416666667     0.958333333
     0.916666667     0.541666667     0.041666667
     0.958333333     0.500000000     0.041666667
     0.916666667     0.500000000     0.083333333
     0.916666667     0.541666667     0.125000000
     0.958333333     0.541666667     0.083333333
     0.916666667     0.500000000     0.166666667
     0.916666667     0.541666667     0.208333333
     0.958333333     0.500000000     0.208333333
     0.958333333     0.541666667     0.166666667
     0.916666667     0.500000000     0.250000000
     0.916666667     0.541666667     0.291666667
     0.958333333     0.500000000     0.291666667
     0.958333333     0.541666667     0.250000000
     0.916666667     0.541666667     0.375000000
     0.916666667     0.500000000     0.416666667
     0.916666667     0.541666667     0.458333333
     0.958333333     0.541666667     0.416666667
     0.916666667     0.500000000     0.500000000
     0.958333333     0.500000000     0.541666667
     0.916666667     0.541666667     0.625000000
     0.958333333     0.500000000     0.625000000
     0.958333333     0.541666667     0.583333333
     0.916666667     0.541666667     0.708333333
     0.958333333     0.500000000     0.708333333
     0.916666667     0.500000000     0.750000000
     0.916666667     0.541666667     0.791666667
     0.958333333     0.500000000     0.791666667
     0.958333333     0.541666667     0.750000000
     0.916666667     0.541666667     0.875000000
     0.958333333     0.500000000     0.875000000
     0.958333333     0.541666667     0.833333333
     0.958333333     0.500000000     0.958333333
     0.958333333     0.541666667     0.916666667
     0.916666667     0.625000000     0.041666667
     0.958333333     0.583333333     0.041666667
     0.958333333     0.625000000     0.000000000
     0.916666667     0.583333333     0.083333333
     0.916666667     0.625000000     0.125000000
     0.958333333     0.625000000     0.083333333
     0.916666667     0.583333333     0.166666667
     0.958333333     0.625000000     0.166666667
     0.916666667     0.583333333     0.250000000
     0.916666667     0.625000000     0.291666667
     0.958333333     0.625000000     0.250000000
     0.916666667     0.625000000     0.375000000
     0.958333333     0.583333333     0.375000000
     0.958333333     0.625000000     0.333333333
     0.916666667     0.625000000     0.458333333
     0.958333333     0.583333333     0.458333333
     0.958333333     0.625000000     0.416666667
     0.916666667     0.583333333     0.500000000
     0.958333333     0.583333333     0.541666667
     0.958333333     0.625000000     0.500000000
     0.916666667     0.583333333     0.583333333
     0.958333333     0.583333333     0.625000000
     0.916666667     0.583333333     0.666666667
     0.916666667     0.625000000     0.708333333
     0.958333333     0.583333333     0.708333333
     0.958333333     0.625000000     0.666666667
     0.916666667     0.625000000     0.791666667
     0.916666667     0.583333333     0.833333333
     0.916666667     0.625000000     0.875000000
     0.958333333     0.625000000     0.833333333
     0.916666667     0.583333333     0.916666667
     0.916666667     0.625000000     0.958333333
     0.916666667     0.666666667     0.000000000
     0.916666667     0.708333333     0.041666667
     0.958333333     0.708333333     0.000000000
     0.916666667     0.666666667     0.083333333
     0.916666667     0.708333333     0.125000000
     0.958333333     0.708333333     0.083333333
     0.916666667     0.708333333     0.208333333
     0.958333333     0.666666667     0.208333333
     0.916666667     0.708333333     0.291666667
     0.958333333     0.666666667     0.291666667
     0.916666667     0.666666667     0.333333333
     0.916666667     0.708333333     0.375000000
     0.958333333     0.666666667     0.375000000
     0.916666667     0.666666667     0.416666667
     0.916666667     0.708333333     0.458333333
     0.958333333     0.666666667     0.458333333
     0.958333333     0.708333333     0.416666667
     0.916666667     0.666666667     0.500000000
     0.958333333     0.666666667     0.541666667
     0.958333333     0.708333333     0.500000000
     0.916666667     0.666666667     0.583333333
     0.916666667     0.708333333     0.625000000
     0.958333333     0.666666667     0.625000000
     0.916666667     0.666666667     0.666666667
     0.916666667     0.708333333     0.708333333
     0.958333333     0.708333333     0.666666667
     0.916666667     0.666666667     0.750000000
     0.916666667     0.708333333     0.791666667
     0.958333333     0.666666667     0.791666667
     0.958333333     0.708333333     0.750000000
     0.916666667     0.666666667     0.833333333
     0.958333333     0.666666667     0.875000000
     0.958333333     0.708333333     0.833333333
     0.916666667     0.666666667     0.916666667
     0.916666667     0.708333333     0.958333333
     0.958333333     0.666666667     0.958333333
     0.916666667     0.750000000     0.000000000
     0.916666667     0.791666667     0.041666667
     0.958333333     0.750000000     0.041666667
     0.958333333     0.791666667     0.000000000
     0.916666667     0.750000000     0.083333333
     0.916666667     0.791666667     0.125000000
     0.958333333     0.750000000     0.125000000
     0.958333333     0.791666667     0.083333333
     0.916666667     0.750000000     0.166666667
     0.958333333     0.750000000     0.208333333
     0.958333333     0.791666667     0.166666667
     0.916666667     0.791666667     0.291666667
     0.958333333     0.791666667     0.250000000
     0.916666667     0.750000000     0.333333333
     0.916666667     0.791666667     0.375000000
     0.958333333     0.750000000     0.375000000
     0.916666667     0.750000000     0.416666667
     0.916666667     0.791666667     0.458333333
     0.958333333     0.750000000     0.458333333
     0.958333333     0.791666667     0.416666667
     0.958333333     0.750000000     0.541666667
     0.958333333     0.791666667     0.500000000
     0.916666667     0.750000000     0.583333333
     0.958333333     0.750000000     0.625000000
     0.916666667     0.791666667     0.708333333
     0.958333333     0.750000000     0.708333333
     0.958333333     0.791666667     0.666666667
     0.916666667     0.750000000     0.750000000
     0.958333333     0.750000000     0.791666667
     0.916666667     0.750000000     0.833333333
     0.958333333     0.750000000     0.875000000
     0.916666667     0.750000000     0.916666667
     0.916666667     0.791666667     0.958333333
     0.916666667     0.833333333     0.000000000
     0.916666667     0.875000000     0.041666667
     0.958333333     0.833333333     0.041666667
     0.958333333     0.875000000     0.000000000
     0.958333333     0.833333333     0.125000000
     0.958333333     0.875000000     0.083333333
     0.958333333     0.833333333     0.208333333
     0.958333333     0.875000000     0.166666667
     0.916666667     0.833333333     0.250000000
     0.958333333     0.833333333     0.291666667
     0.958333333     0.875000000     0.250000000
     0.958333333     0.833333333     0.375000000
     0.958333333     0.875000000     0.333333333
     0.916666667     0.833333333     0.416666667
     0.916666667     0.875000000     0.458333333
     0.958333333     0.833333333     0.458333333
     0.958333333     0.875000000     0.416666667
     0.916666667     0.833333333     0.500000000
     0.916666667     0.875000000     0.541666667
     0.958333333     0.833333333     0.541666667
     0.916666667     0.833333333     0.583333333
     0.916666667     0.875000000     0.625000000
     0.958333333     0.833333333     0.625000000
     0.958333333     0.875000000     0.583333333
     0.916666667     0.833333333     0.666666667
     0.916666667     0.875000000     0.708333333
     0.958333333     0.875000000     0.666666667
     0.958333333     0.833333333     0.791666667
     0.958333333     0.875000000     0.750000000
     0.916666667     0.875000000     0.875000000
     0.958333333     0.833333333     0.875000000
     0.958333333     0.875000000     0.833333333
     0.916666667     0.833333333     0.916666667
     0.916666667     0.875000000     0.958333333
     0.958333333     0.833333333     0.958333333
     0.958333333     0.875000000     0.916666667
     0.958333333     0.916666667     0.041666667
     0.958333333     0.958333333     0.000000000
     0.916666667     0.916666667     0.083333333
     0.958333333     0.958333333     0.083333333
     0.916666667     0.916666667     0.166666667
     0.916666667     0.958333333     0.208333333
     0.958333333     0.916666667     0.208333333
     0.958333333     0.958333333     0.166666667
     0.916666667     0.916666667     0.250000000
     0.916666667     0.958333333     0.291666667
     0.958333333     0.916666667     0.291666667
     0.916666667     0.916666667     0.333333333
     0.916666667     0.958333333     0.375000000
     0.958333333     0.916666667     0.375000000
     0.958333333     0.958333333     0.333333333
     0.916666667     0.916666667     0.416666667
     0.916666667     0.958333333     0.458333333
     0.958333333     0.916666667     0.458333333
     0.958333333     0.958333333     0.416666667
     0.916666667     0.916666667     0.500000000
     0.916666667     0.958333333     0.541666667
     0.958333333     0.916666667     0.541666667
     0.916666667     0.916666667     0.583333333
     0.916666667     0.958333333     0.625000000
     0.958333333     0.916666667     0.625000000
     0.916666667     0.916666667     0.666666667
     0.958333333     0.958333333     0.666666667
     0.916666667     0.916666667     0.750000000
     0.916666667     0.958333333     0.791666667
     0.958333333     0.958333333     0.750000000
     0.916666667     0.916666667     0.833333333
     0.916666667     0.958333333     0.875000000
     0.958333333     0.958333333     0.833333333
     0.958333333     0.916666667     0.958333333
     0.958333333     0.958333333     0.916666667