480
Lattice="10.572 0.0 0.0 0.0 17.62 0.0 0.0 0.0 36.43" Properties=species:S:1:pos:R:3:initial_magmoms:R:1 pbc="T T T"
Mo       0.00000000       0.00000000       5.00000000       0.60000000
Ni       0.00000000       1.76200000       6.76200000       0.60000000
Ni       1.76200000       0.00000000       6.76200000       0.60000000
Ni       1.76200000       1.76200000       5.00000000       0.60000000
Ni       0.00000000       0.00000000       8.52400000       0.60000000
Ni       0.00000000       1.76200000      10.28600000       0.60000000
Ni       1.76200000       0.00000000      10.28600000       0.60000000
Ni       1.76200000       1.76200000       8.52400000       0.60000000
Ni       0.00000000       0.00000000      12.04800000       0.60000000
Mo       0.00000000       1.76200000      13.81000000       0.60000000
Ni       1.76200000       0.00000000      13.81000000       0.60000000
Mo       1.76200000       1.76200000      12.04800000       0.60000000
Ni       0.00000000       0.00000000      15.57200000       0.60000000
Ni       0.00000000       1.76200000      17.33400000       0.60000000
Ni       1.76200000       0.00000000      17.33400000       0.60000000
Cr       1.76200000       1.76200000      15.57200000       0.60000000
Ni       0.00000000       0.00000000      19.09600000       0.60000000
Ni       0.00000000       1.76200000      20.85800000       0.60000000
Mo       1.76200000       0.00000000      20.85800000       0.60000000
Cr       1.76200000       1.76200000      19.09600000       0.60000000
Ni       0.00000000       0.00000000      22.62000000       0.60000000
Ni       0.00000000       1.76200000      24.38200000       0.60000000
Fe       1.76200000       0.00000000      24.38200000       0.60000000
Ni       1.76200000       1.76200000      22.62000000       0.60000000
Ni       0.00000000       0.00000000      26.14400000       0.60000000
Fe       0.00000000       1.76200000      27.90600000       0.60000000
Ni       1.76200000       0.00000000      27.90600000       0.60000000
Ni       1.76200000       1.76200000      26.14400000       0.60000000
Ni       0.00000000       0.00000000      29.66800000       0.60000000
Ni       0.00000000       1.76200000      31.43000000       0.60000000
Mo       1.76200000       0.00000000      31.43000000       0.60000000
Ni       1.76200000       1.76200000      29.66800000       0.60000000
Ni       0.00000000       3.52400000       5.00000000       0.60000000
Mo       0.00000000       5.28600000       6.76200000       0.60000000
Ni       1.76200000       3.52400000       6.76200000       0.60000000
Ni       1.76200000       5.28600000       5.00000000       0.60000000
Ni       0.00000000       3.52400000       8.52400000       0.60000000
Ni       0.00000000       5.28600000      10.28600000       0.60000000
Ni       1.76200000       3.52400000      10.28600000       0.60000000
Mo       1.76200000       5.28600000       8.52400000       0.60000000
Ni       0.00000000       3.52400000      12.04800000       0.60000000
Ni       0.00000000       5.28600000      13.81000000       0.60000000
Fe       1.76200000       3.52400000      13.81000000       0.60000000
Ni       1.76200000       5.28600000      12.04800000       0.60000000
Ni       0.00000000       3.52400000      15.57200000       0.60000000
Ni       0.00000000       5.28600000      17.33400000       0.60000000
Fe       1.76200000       3.52400000      17.33400000       0.60000000
Ni       1.76200000       5.28600000      15.57200000       0.60000000
Ni       0.00000000       3.52400000      19.09600000       0.60000000
Ni       0.00000000       5.28600000      20.85800000       0.60000000
Ni       1.76200000       3.52400000      20.85800000       0.60000000
Ni       1.76200000       5.28600000      19.09600000       0.60000000
Ni       0.00000000       3.52400000      22.62000000       0.60000000
Ni       0.00000000       5.28600000      24.38200000       0.60000000
Ni       1.76200000       3.52400000      24.38200000       0.60000000
Mo       1.76200000       5.28600000      22.62000000       0.60000000
Cr       0.00000000       3.52400000      26.14400000       0.60000000
Al       0.00000000       5.28600000      27.90600000       0.60000000
Ni       1.76200000       3.52400000      27.90600000       0.60000000
Ni       1.76200000       5.28600000      26.14400000       0.60000000
Ni       0.00000000       3.52400000      29.66800000       0.60000000
Ni       0.00000000       5.28600000      31.43000000       0.60000000
Ni       1.76200000       3.52400000      31.43000000       0.60000000
Mo       1.76200000       5.28600000      29.66800000       0.60000000
Ni       0.00000000       7.04800000       5.00000000       0.60000000
Ni       0.00000000       8.81000000       6.76200000       0.60000000
Ni       1.76200000       7.04800000       6.76200000       0.60000000
Ni       1.76200000       8.81000000       5.00000000       0.60000000
Cr       0.00000000       7.04800000       8.52400000       0.60000000
Ni       0.00000000       8.81000000      10.28600000       0.60000000
Mo       1.76200000       7.04800000      10.28600000       0.60000000
Ni       1.76200000       8.81000000       8.52400000       0.60000000
Cr       0.00000000       7.04800000      12.04800000       0.60000000
Mo       0.00000000       8.81000000      13.81000000       0.60000000
Ni       1.76200000       7.04800000      13.81000000       0.60000000
Cr       1.76200000       8.81000000      12.04800000       0.60000000
Mo       0.00000000       7.04800000      15.57200000       0.60000000
Mo       0.00000000       8.81000000      17.33400000       0.60000000
Cr       1.76200000       7.04800000      17.33400000       0.60000000
Cr       1.76200000       8.81000000      15.57200000       0.60000000
Ni       0.00000000       7.04800000      19.09600000       0.60000000
Ni       0.00000000       8.81000000      20.85800000       0.60000000
Cr       1.76200000       7.04800000      20.85800000       0.60000000
Ni       1.76200000       8.81000000      19.09600000       0.60000000
Ni       0.00000000       7.04800000      22.62000000       0.60000000
Ni       0.00000000       8.81000000      24.38200000       0.60000000
Ni       1.76200000       7.04800000      24.38200000       0.60000000
Ni       1.76200000       8.81000000      22.62000000       0.60000000
Ni       0.00000000       7.04800000      26.14400000       0.60000000
Ni       0.00000000       8.81000000      27.90600000       0.60000000
Mo       1.76200000       7.04800000      27.90600000       0.60000000
Ni       1.76200000       8.81000000      26.14400000       0.60000000
Ni       0.00000000       7.04800000      29.66800000       0.60000000
Mo       0.00000000       8.81000000      31.43000000       0.60000000
Ni       1.76200000       7.04800000      31.43000000       0.60000000
Ni       1.76200000       8.81000000      29.66800000       0.60000000
Ni       0.00000000      10.57200000       5.00000000       0.60000000
Ni       0.00000000      12.33400000       6.76200000       0.60000000
Ni       1.76200000      10.57200000       6.76200000       0.60000000
Ni       1.76200000      12.33400000       5.00000000       0.60000000
Ni       0.00000000      10.57200000       8.52400000       0.60000000
Cr       0.00000000      12.33400000      10.28600000       0.60000000
Ni       1.76200000      10.57200000      10.28600000       0.60000000
Ni       1.76200000      12.33400000       8.52400000       0.60000000
Mo       0.00000000      10.57200000      12.04800000       0.60000000
Ni       0.00000000      12.33400000      13.81000000       0.60000000
Ni       1.76200000      10.57200000      13.81000000       0.60000000
Ni       1.76200000      12.33400000      12.04800000       0.60000000
Ni       0.00000000      10.57200000      15.57200000       0.60000000
Ni       0.00000000      12.33400000      17.33400000       0.60000000
Ni       1.76200000      10.57200000      17.33400000       0.60000000
Ni       1.76200000      12.33400000      15.57200000       0.60000000
Ni       0.00000000      10.57200000      19.09600000       0.60000000
Cr       0.00000000      12.33400000      20.85800000       0.60000000
Ni       1.76200000      10.57200000      20.85800000       0.60000000
Ni       1.76200000      12.33400000      19.09600000       0.60000000
Ni       0.00000000      10.57200000      22.62000000       0.60000000
Mo       0.00000000      12.33400000      24.38200000       0.60000000
Ni       1.76200000      10.57200000      24.38200000       0.60000000
Ni       1.76200000      12.33400000      22.62000000       0.60000000
Ni       0.00000000      10.57200000      26.14400000       0.60000000
Ni       0.00000000      12.33400000      27.90600000       0.60000000
Ni       1.76200000      10.57200000      27.90600000       0.60000000
Ni       1.76200000      12.33400000      26.14400000       0.60000000
Ni       0.00000000      10.57200000      29.66800000       0.60000000
Ni       0.00000000      12.33400000      31.43000000       0.60000000
Fe       1.76200000      10.57200000      31.43000000       0.60000000
Ni       1.76200000      12.33400000      29.66800000       0.60000000
Ni       0.00000000      14.09600000       5.00000000       0.60000000
Ni       0.00000000      15.85800000       6.76200000       0.60000000
Ni       1.76200000      14.09600000       6.76200000       0.60000000
C        1.76200000      15.85800000       5.00000000       0.60000000
Fe       0.00000000      14.09600000       8.52400000       0.60000000
Ni       0.00000000      15.85800000      10.28600000       0.60000000
Ni       1.76200000      14.09600000      10.28600000       0.60000000
Ni       1.76200000      15.85800000       8.52400000       0.60000000
Ni       0.00000000      14.09600000      12.04800000       0.60000000
Cr       0.00000000      15.85800000      13.81000000       0.60000000
Ni       1.76200000      14.09600000      13.81000000       0.60000000
Ni       1.76200000      15.85800000      12.04800000       0.60000000
Fe       0.00000000      14.09600000      15.57200000       0.60000000
Ni       0.00000000      15.85800000      17.33400000       0.60000000
Ni       1.76200000      14.09600000      17.33400000       0.60000000
Ni       1.76200000      15.85800000      15.57200000       0.60000000
Ni       0.00000000      14.09600000      19.09600000       0.60000000
Ni       0.00000000      15.85800000      20.85800000       0.60000000
Ni       1.76200000      14.09600000      20.85800000       0.60000000
Ni       1.76200000      15.85800000      19.09600000       0.60000000
Cr       0.00000000      14.09600000      22.62000000       0.60000000
Ni       0.00000000      15.85800000      24.38200000       0.60000000
Ni       1.76200000      14.09600000      24.38200000       0.60000000
Ni       1.76200000      15.85800000      22.62000000       0.60000000
Ni       0.00000000      14.09600000      26.14400000       0.60000000
Cr       0.00000000      15.85800000      27.90600000       0.60000000
Cr       1.76200000      14.09600000      27.90600000       0.60000000
Mo       1.76200000      15.85800000      26.14400000       0.60000000
Ni       0.00000000      14.09600000      29.66800000       0.60000000
Ni       0.00000000      15.85800000      31.43000000       0.60000000
Ni       1.76200000      14.09600000      31.43000000       0.60000000
Ni       1.76200000      15.85800000      29.66800000       0.60000000
Ni       3.52400000       0.00000000       5.00000000       0.60000000
Ni       3.52400000       1.76200000       6.76200000       0.60000000
Ni       5.28600000       0.00000000       6.76200000       0.60000000
Ni       5.28600000       1.76200000       5.00000000       0.60000000
Ni       3.52400000       0.00000000       8.52400000       0.60000000
Ni       3.52400000       1.76200000      10.28600000       0.60000000
Ni       5.28600000       0.00000000      10.28600000       0.60000000
Ni       5.28600000       1.76200000       8.52400000       0.60000000
Ni       3.52400000       0.00000000      12.04800000       0.60000000
Ni       3.52400000       1.76200000      13.81000000       0.60000000
Ni       5.28600000       0.00000000      13.81000000       0.60000000
Ni       5.28600000       1.76200000      12.04800000       0.60000000
Mo       3.52400000       0.00000000      15.57200000       0.60000000
Mo       3.52400000       1.76200000      17.33400000       0.60000000
Ni       5.28600000       0.00000000      17.33400000       0.60000000
Cr       5.28600000       1.76200000      15.57200000       0.60000000
Al       3.52400000       0.00000000      19.09600000       0.60000000
Ni       3.52400000       1.76200000      20.85800000       0.60000000
Ni       5.28600000       0.00000000      20.85800000       0.60000000
Ni       5.28600000       1.76200000      19.09600000       0.60000000
Mo       3.52400000       0.00000000      22.62000000       0.60000000
Ni       3.52400000       1.76200000      24.38200000       0.60000000
Ni       5.28600000       0.00000000      24.38200000       0.60000000
Ni       5.28600000       1.76200000      22.62000000       0.60000000
Ni       3.52400000       0.00000000      26.14400000       0.60000000
Mo       3.52400000       1.76200000      27.90600000       0.60000000
Ni       5.28600000       0.00000000      27.90600000       0.60000000
Ni       5.28600000       1.76200000      26.14400000       0.60000000
Ni       3.52400000       0.00000000      29.66800000       0.60000000
Ni       3.52400000       1.76200000      31.43000000       0.60000000
Ni       5.28600000       0.00000000      31.43000000       0.60000000
Ni       5.28600000       1.76200000      29.66800000       0.60000000
Fe       3.52400000       3.52400000       5.00000000       0.60000000
Ni       3.52400000       5.28600000       6.76200000       0.60000000
Ni       5.28600000       3.52400000       6.76200000       0.60000000
Ni       5.28600000       5.28600000       5.00000000       0.60000000
Ni       3.52400000       3.52400000       8.52400000       0.60000000
Ni       3.52400000       5.28600000      10.28600000       0.60000000
Ni       5.28600000       3.52400000      10.28600000       0.60000000
Ni       5.28600000       5.28600000       8.52400000       0.60000000
Ni       3.52400000       3.52400000      12.04800000       0.60000000
Ni       3.52400000       5.28600000      13.81000000       0.60000000
Ni       5.28600000       3.52400000      13.81000000       0.60000000
Mo       5.28600000       5.28600000      12.04800000       0.60000000
Ni       3.52400000       3.52400000      15.57200000       0.60000000
Ni       3.52400000       5.28600000      17.33400000       0.60000000
Ni       5.28600000       3.52400000      17.33400000       0.60000000
Ni       5.28600000       5.28600000      15.57200000       0.60000000
Cr       3.52400000       3.52400000      19.09600000       0.60000000
Fe       3.52400000       5.28600000      20.85800000       0.60000000
Ni       5.28600000       3.52400000      20.85800000       0.60000000
Cr       5.28600000       5.28600000      19.09600000       0.60000000
Ni       3.52400000       3.52400000      22.62000000       0.60000000
Ni       3.52400000       5.28600000      24.38200000       0.60000000
Ni       5.28600000       3.52400000      24.38200000       0.60000000
Ni       5.28600000       5.28600000      22.62000000       0.60000000
Ni       3.52400000       3.52400000      26.14400000       0.60000000
Ni       3.52400000       5.28600000      27.90600000       0.60000000
Cr       5.28600000       3.52400000      27.90600000       0.60000000
Ni       5.28600000       5.28600000      26.14400000       0.60000000
Mo       3.52400000       3.52400000      29.66800000       0.60000000
Ni       3.52400000       5.28600000      31.43000000       0.60000000
Cr       5.28600000       3.52400000      31.43000000       0.60000000
Ni       5.28600000       5.28600000      29.66800000       0.60000000
Ni       3.52400000       7.04800000       5.00000000       0.60000000
Ni       3.52400000       8.81000000       6.76200000       0.60000000
Ni       5.28600000       7.04800000       6.76200000       0.60000000
Ni       5.28600000       8.81000000       5.00000000       0.60000000
Fe       3.52400000       7.04800000       8.52400000       0.60000000
Ni       3.52400000       8.81000000      10.28600000       0.60000000
Ni       5.28600000       7.04800000      10.28600000       0.60000000
Ni       5.28600000       8.81000000       8.52400000       0.60000000
Ni       3.52400000       7.04800000      12.04800000       0.60000000
Ni       3.52400000       8.81000000      13.81000000       0.60000000
Cr       5.28600000       7.04800000      13.81000000       0.60000000
Ni       5.28600000       8.81000000      12.04800000       0.60000000
Ni       3.52400000       7.04800000      15.57200000       0.60000000
Cr       3.52400000       8.81000000      17.33400000       0.60000000
Ni       5.28600000       7.04800000      17.33400000       0.60000000
Ni       5.28600000       8.81000000      15.57200000       0.60000000
Ni       3.52400000       7.04800000      19.09600000       0.60000000
Ni       3.52400000       8.81000000      20.85800000       0.60000000
Ni       5.28600000       7.04800000      20.85800000       0.60000000
Ni       5.28600000       8.81000000      19.09600000       0.60000000
Ni       3.52400000       7.04800000      22.62000000       0.60000000
Ni       3.52400000       8.81000000      24.38200000       0.60000000
Ni       5.28600000       7.04800000      24.38200000       0.60000000
Ni       5.28600000       8.81000000      22.62000000       0.60000000
Ni       3.52400000       7.04800000      26.14400000       0.60000000
Cr       3.52400000       8.81000000      27.90600000       0.60000000
Ni       5.28600000       7.04800000      27.90600000       0.60000000
Ni       5.28600000       8.81000000      26.14400000       0.60000000
Ni       3.52400000       7.04800000      29.66800000       0.60000000
Cr       3.52400000       8.81000000      31.43000000       0.60000000
Ni       5.28600000       7.04800000      31.43000000       0.60000000
Ni       5.28600000       8.81000000      29.66800000       0.60000000
Ni       3.52400000      10.57200000       5.00000000       0.60000000
Ni       3.52400000      12.33400000       6.76200000       0.60000000
Ni       5.28600000      10.57200000       6.76200000       0.60000000
Ni       5.28600000      12.33400000       5.00000000       0.60000000
Ni       3.52400000      10.57200000       8.52400000       0.60000000
Mo       3.52400000      12.33400000      10.28600000       0.60000000
Ni       5.28600000      10.57200000      10.28600000       0.60000000
Ni       5.28600000      12.33400000       8.52400000       0.60000000
Ni       3.52400000      10.57200000      12.04800000       0.60000000
Ni       3.52400000      12.33400000      13.81000000       0.60000000
Cr       5.28600000      10.57200000      13.81000000       0.60000000
Ni       5.28600000      12.33400000      12.04800000       0.60000000
Mo       3.52400000      10.57200000      15.57200000       0.60000000
Ni       3.52400000      12.33400000      17.33400000       0.60000000
Ni       5.28600000      10.57200000      17.33400000       0.60000000
Ni       5.28600000      12.33400000      15.57200000       0.60000000
Ni       3.52400000      10.57200000      19.09600000       0.60000000
Ni       3.52400000      12.33400000      20.85800000       0.60000000
Ni       5.28600000      10.57200000      20.85800000       0.60000000
Ni       5.28600000      12.33400000      19.09600000       0.60000000
Ni       3.52400000      10.57200000      22.62000000       0.60000000
Mo       3.52400000      12.33400000      24.38200000       0.60000000
Ni       5.28600000      10.57200000      24.38200000       0.60000000
Ni       5.28600000      12.33400000      22.62000000       0.60000000
Ni       3.52400000      10.57200000      26.14400000       0.60000000
Mo       3.52400000      12.33400000      27.90600000       0.60000000
Ni       5.28600000      10.57200000      27.90600000       0.60000000
Ni       5.28600000      12.33400000      26.14400000       0.60000000
Ni       3.52400000      10.57200000      29.66800000       0.60000000
Ni       3.52400000      12.33400000      31.43000000       0.60000000
Ni       5.28600000      10.57200000      31.43000000       0.60000000
Ni       5.28600000      12.33400000      29.66800000       0.60000000
Ni       3.52400000      14.09600000       5.00000000       0.60000000
Ni       3.52400000      15.85800000       6.76200000       0.60000000
Al       5.28600000      14.09600000       6.76200000       0.60000000
Ni       5.28600000      15.85800000       5.00000000       0.60000000
Ni       3.52400000      14.09600000       8.52400000       0.60000000
Ni       3.52400000      15.85800000      10.28600000       0.60000000
Ni       5.28600000      14.09600000      10.28600000       0.60000000
Ni       5.28600000      15.85800000       8.52400000       0.60000000
Ni       3.52400000      14.09600000      12.04800000       0.60000000
Ni       3.52400000      15.85800000      13.81000000       0.60000000
Mo       5.28600000      14.09600000      13.81000000       0.60000000
Ni       5.28600000      15.85800000      12.04800000       0.60000000
Ni       3.52400000      14.09600000      15.57200000       0.60000000
Mo       3.52400000      15.85800000      17.33400000       0.60000000
Mo       5.28600000      14.09600000      17.33400000       0.60000000
Ni       5.28600000      15.85800000      15.57200000       0.60000000
Cr       3.52400000      14.09600000      19.09600000       0.60000000
Cr       3.52400000      15.85800000      20.85800000       0.60000000
Ni       5.28600000      14.09600000      20.85800000       0.60000000
Ni       5.28600000      15.85800000      19.09600000       0.60000000
Ni       3.52400000      14.09600000      22.62000000       0.60000000
Ni       3.52400000      15.85800000      24.38200000       0.60000000
Cr       5.28600000      14.09600000      24.38200000       0.60000000
Cr       5.28600000      15.85800000      22.62000000       0.60000000
Ni       3.52400000      14.09600000      26.14400000       0.60000000
Ni       3.52400000      15.85800000      27.90600000       0.60000000
Ni       5.28600000      14.09600000      27.90600000       0.60000000
Ni       5.28600000      15.85800000      26.14400000       0.60000000
Ni       3.52400000      14.09600000      29.66800000       0.60000000
Ni       3.52400000      15.85800000      31.43000000       0.60000000
Ni       5.28600000      14.09600000      31.43000000       0.60000000
Ni       5.28600000      15.85800000      29.66800000       0.60000000
Cr       7.04800000       0.00000000       5.00000000       0.60000000
Mo       7.04800000       1.76200000       6.76200000       0.60000000
Cr       8.81000000       0.00000000       6.76200000       0.60000000
Mo       8.81000000       1.76200000       5.00000000       0.60000000
Ni       7.04800000       0.00000000       8.52400000       0.60000000
Ni       7.04800000       1.76200000      10.28600000       0.60000000
Ni       8.81000000       0.00000000      10.28600000       0.60000000
Ni       8.81000000       1.76200000       8.52400000       0.60000000
Ni       7.04800000       0.00000000      12.04800000       0.60000000
Ni       7.04800000       1.76200000      13.81000000       0.60000000
Ni       8.81000000       0.00000000      13.81000000       0.60000000
Ni       8.81000000       1.76200000      12.04800000       0.60000000
Mo       7.04800000       0.00000000      15.57200000       0.60000000
Ni       7.04800000       1.76200000      17.33400000       0.60000000
Cr       8.81000000       0.00000000      17.33400000       0.60000000
Ni       8.81000000       1.76200000      15.57200000       0.60000000
Ni       7.04800000       0.00000000      19.09600000       0.60000000
Ni       7.04800000       1.76200000      20.85800000       0.60000000
Ni       8.81000000       0.00000000      20.85800000       0.60000000
Ni       8.81000000       1.76200000      19.09600000       0.60000000
Cr       7.04800000       0.00000000      22.62000000       0.60000000
Ni       7.04800000       1.76200000      24.38200000       0.60000000
Ni       8.81000000       0.00000000      24.38200000       0.60000000
Ni       8.81000000       1.76200000      22.62000000       0.60000000
Ni       7.04800000       0.00000000      26.14400000       0.60000000
Ni       7.04800000       1.76200000      27.90600000       0.60000000
Ni       8.81000000       0.00000000      27.90600000       0.60000000
Ni       8.81000000       1.76200000      26.14400000       0.60000000
Ni       7.04800000       0.00000000      29.66800000       0.60000000
Cr       7.04800000       1.76200000      31.43000000       0.60000000
Ni       8.81000000       0.00000000      31.43000000       0.60000000
Ni       8.81000000       1.76200000      29.66800000       0.60000000
Ni       7.04800000       3.52400000       5.00000000       0.60000000
Ni       7.04800000       5.28600000       6.76200000       0.60000000
Ni       8.81000000       3.52400000       6.76200000       0.60000000
Ni       8.81000000       5.28600000       5.00000000       0.60000000
Ni       7.04800000       3.52400000       8.52400000       0.60000000
Ni       7.04800000       5.28600000      10.28600000       0.60000000
Mo       8.81000000       3.52400000      10.28600000       0.60000000
Ni       8.81000000       5.28600000       8.52400000       0.60000000
Fe       7.04800000       3.52400000      12.04800000       0.60000000
Ni       7.04800000       5.28600000      13.81000000       0.60000000
Ni       8.81000000       3.52400000      13.81000000       0.60000000
Ni       8.81000000       5.28600000      12.04800000       0.60000000
Ni       7.04800000       3.52400000      15.57200000       0.60000000
Ni       7.04800000       5.28600000      17.33400000       0.60000000
Ni       8.81000000       3.52400000      17.33400000       0.60000000
Ni       8.81000000       5.28600000      15.57200000       0.60000000
Ni       7.04800000       3.52400000      19.09600000       0.60000000
Ni       7.04800000       5.28600000      20.85800000       0.60000000
Ni       8.81000000       3.52400000      20.85800000       0.60000000
Ni       8.81000000       5.28600000      19.09600000       0.60000000
Ni       7.04800000       3.52400000      22.62000000       0.60000000
Ni       7.04800000       5.28600000      24.38200000       0.60000000
Ni       8.81000000       3.52400000      24.38200000       0.60000000
Mo       8.81000000       5.28600000      22.62000000       0.60000000
Ni       7.04800000       3.52400000      26.14400000       0.60000000
Mo       7.04800000       5.28600000      27.90600000       0.60000000
Ni       8.81000000       3.52400000      27.90600000       0.60000000
Ni       8.81000000       5.28600000      26.14400000       0.60000000
Mo       7.04800000       3.52400000      29.66800000       0.60000000
Ni       7.04800000       5.28600000      31.43000000       0.60000000
Ni       8.81000000       3.52400000      31.43000000       0.60000000
Ni       8.81000000       5.28600000      29.66800000       0.60000000
Ni       7.04800000       7.04800000       5.00000000       0.60000000
Ni       7.04800000       8.81000000       6.76200000       0.60000000
Ni       8.81000000       7.04800000       6.76200000       0.60000000
Ni       8.81000000       8.81000000       5.00000000       0.60000000
Ni       7.04800000       7.04800000       8.52400000       0.60000000
Ni       7.04800000       8.81000000      10.28600000       0.60000000
Mo       8.81000000       7.04800000      10.28600000       0.60000000
Mo       8.81000000       8.81000000       8.52400000       0.60000000
Ni       7.04800000       7.04800000      12.04800000       0.60000000
Ni       7.04800000       8.81000000      13.81000000       0.60000000
Mo       8.81000000       7.04800000      13.81000000       0.60000000
Ni       8.81000000       8.81000000      12.04800000       0.60000000
Ni       7.04800000       7.04800000      15.57200000       0.60000000
Ni       7.04800000       8.81000000      17.33400000       0.60000000
Ni       8.81000000       7.04800000      17.33400000       0.60000000
Mo       8.81000000       8.81000000      15.57200000       0.60000000
Fe       7.04800000       7.04800000      19.09600000       0.60000000
Ni       7.04800000       8.81000000      20.85800000       0.60000000
Ni       8.81000000       7.04800000      20.85800000       0.60000000
Ni       8.81000000       8.81000000      19.09600000       0.60000000
Ni       7.04800000       7.04800000      22.62000000       0.60000000
Ni       7.04800000       8.81000000      24.38200000       0.60000000
Fe       8.81000000       7.04800000      24.38200000       0.60000000
Ni       8.81000000       8.81000000      22.62000000       0.60000000
Fe       7.04800000       7.04800000      26.14400000       0.60000000
Ni       7.04800000       8.81000000      27.90600000       0.60000000
Ni       8.81000000       7.04800000      27.90600000       0.60000000
Ni       8.81000000       8.81000000      26.14400000       0.60000000
Ni       7.04800000       7.04800000      29.66800000       0.60000000
Ni       7.04800000       8.81000000      31.43000000       0.60000000
Mo       8.81000000       7.04800000      31.43000000       0.60000000
Cr       8.81000000       8.81000000      29.66800000       0.60000000
Ni       7.04800000      10.57200000       5.00000000       0.60000000
Ni       7.04800000      12.33400000       6.76200000       0.60000000
Ni       8.81000000      10.57200000       6.76200000       0.60000000
Fe       8.81000000      12.33400000       5.00000000       0.60000000
Al       7.04800000      10.57200000       8.52400000       0.60000000
Cr       7.04800000      12.33400000      10.28600000       0.60000000
Fe       8.81000000      10.57200000      10.28600000       0.60000000
Mo       8.81000000      12.33400000       8.52400000       0.60000000
Ni       7.04800000      10.57200000      12.04800000       0.60000000
Ni       7.04800000      12.33400000      13.81000000       0.60000000
Ni       8.81000000      10.57200000      13.81000000       0.60000000
Ni       8.81000000      12.33400000      12.04800000       0.60000000
Ni       7.04800000      10.57200000      15.57200000       0.60000000
Ni       7.04800000      12.33400000      17.33400000       0.60000000
Mo       8.81000000      10.57200000      17.33400000       0.60000000
Ni       8.81000000      12.33400000      15.57200000       0.60000000
Cr       7.04800000      10.57200000      19.09600000       0.60000000
Mo       7.04800000      12.33400000      20.85800000       0.60000000
Cr       8.81000000      10.57200000      20.85800000       0.60000000
Ni       8.81000000      12.33400000      19.09600000       0.60000000
Ni       7.04800000      10.57200000      22.62000000       0.60000000
Ni       7.04800000      12.33400000      24.38200000       0.60000000
Ni       8.81000000      10.57200000      24.38200000       0.60000000
Ni       8.81000000      12.33400000      22.62000000       0.60000000
Ni       7.04800000      10.57200000      26.14400000       0.60000000
Ni       7.04800000      12.33400000      27.90600000       0.60000000
Mo       8.81000000      10.57200000      27.90600000       0.60000000
Ni       8.81000000      12.33400000      26.14400000       0.60000000
Ni       7.04800000      10.57200000      29.66800000       0.60000000
Ni       7.04800000      12.33400000      31.43000000       0.60000000
Ni       8.81000000      10.57200000      31.43000000       0.60000000
Ni       8.81000000      12.33400000      29.66800000       0.60000000
Fe       7.04800000      14.09600000       5.00000000       0.60000000
Ni       7.04800000      15.85800000       6.76200000       0.60000000
Ni       8.81000000      14.09600000       6.76200000       0.60000000
Ni       8.81000000      15.85800000       5.00000000       0.60000000
Ni       7.04800000      14.09600000       8.52400000       0.60000000
Ni       7.04800000      15.85800000      10.28600000       0.60000000
Ni       8.81000000      14.09600000      10.28600000       0.60000000
Ni       8.81000000      15.85800000       8.52400000       0.60000000
Ni       7.04800000      14.09600000      12.04800000       0.60000000
Fe       7.04800000      15.85800000      13.81000000       0.60000000
Ni       8.81000000      14.09600000      13.81000000       0.60000000
Mo       8.81000000      15.85800000      12.04800000       0.60000000
Ni       7.04800000      14.09600000      15.57200000       0.60000000
Ni       7.04800000      15.85800000      17.33400000       0.60000000
Ni       8.81000000      14.09600000      17.33400000       0.60000000
Cr       8.81000000      15.85800000      15.57200000       0.60000000
Cr       7.04800000      14.09600000      19.09600000       0.60000000
Mo       7.04800000      15.85800000      20.85800000       0.60000000
Ni       8.81000000      14.09600000      20.85800000       0.60000000
Ni       8.81000000      15.85800000      19.09600000       0.60000000
Ni       7.04800000      14.09600000      22.62000000       0.60000000
Ni       7.04800000      15.85800000      24.38200000       0.60000000
Al       8.81000000      14.09600000      24.38200000       0.60000000
Mo       8.81000000      15.85800000      22.62000000       0.60000000
Ni       7.04800000      14.09600000      26.14400000       0.60000000
Fe       7.04800000      15.85800000      27.90600000       0.60000000
Mo       8.81000000      14.09600000      27.90600000       0.60000000
Cr       8.81000000      15.85800000      26.14400000       0.60000000
Ni       7.04800000      14.09600000      29.66800000       0.60000000
Cr       7.04800000      15.85800000      31.43000000       0.60000000
Ni       8.81000000      14.09600000      31.43000000       0.60000000
Ni       8.81000000      15.85800000      29.66800000       0.60000000
