(written by ASE)

288 atoms
7 atom types

0.0      10.571999999999999  xlo xhi
0.0      10.571999999999999  ylo yhi
0.0                   36.43  zlo zhi

Atoms # atomic

     1   1                       0                       0                       5
     2   1                       0                   1.762      6.7620000000000005
     3   1                   1.762                       0      6.7620000000000005
     4   1                   1.762                   1.762                       5
     5   1                       0                       0      8.5240000000000009
     6   2                       0                   1.762                  10.286
     7   4                   1.762                       0                  10.286
     8   1                   1.762                   1.762      8.5240000000000009
     9   1                       0                       0                  12.048
    10   2                       0                   1.762                   13.81
    11   1                   1.762                       0                   13.81
    12   1                   1.762                   1.762                  12.048
    13   1                       0                       0      15.571999999999999
    14   1                       0                   1.762                  17.334
    15   1                   1.762                       0                  17.334
    16   6                   1.762                   1.762      15.571999999999999
    17   1                       0                       0                  19.096
    18   1                       0                   1.762      20.858000000000001
    19   1                   1.762                       0      20.858000000000001
    20   5                   1.762                   1.762                  19.096
    21   1                       0                       0      22.620000000000001
    22   1                       0                   1.762      24.382000000000001
    23   3                   1.762                       0      24.382000000000001
    24   1                   1.762                   1.762      22.620000000000001
    25   3                       0                       0      26.143999999999998
    26   4                       0                   1.762      27.905999999999999
    27   1                   1.762                       0      27.905999999999999
    28   1                   1.762                   1.762      26.143999999999998
    29   1                       0                       0      29.667999999999999
    30   1                       0                   1.762                   31.43
    31   3                   1.762                       0                   31.43
    32   1                   1.762                   1.762      29.667999999999999
    33   1                       0                   3.524                       5
    34   2                       0      5.2859999999999996      6.7620000000000005
    35   1                   1.762                   3.524      6.7620000000000005
    36   1                   1.762      5.2859999999999996                       5
    37   1                       0                   3.524      8.5240000000000009
    38   1                       0      5.2859999999999996                  10.286
    39   1                   1.762                   3.524                  10.286
    40   1                   1.762      5.2859999999999996      8.5240000000000009
    41   1                       0                   3.524                  12.048
    42   1                       0      5.2859999999999996                   13.81
    43   2                   1.762                   3.524                   13.81
    44   1                   1.762      5.2859999999999996                  12.048
    45   1                       0                   3.524      15.571999999999999
    46   2                       0      5.2859999999999996                  17.334
    47   2                   1.762                   3.524                  17.334
    48   1                   1.762      5.2859999999999996      15.571999999999999
    49   1                       0                   3.524                  19.096
    50   1                       0      5.2859999999999996      20.858000000000001
    51   1                   1.762                   3.524      20.858000000000001
    52   1                   1.762      5.2859999999999996                  19.096
    53   1                       0                   3.524      22.620000000000001
    54   1                       0      5.2859999999999996      24.382000000000001
    55   1                   1.762                   3.524      24.382000000000001
    56   1                   1.762      5.2859999999999996      22.620000000000001
    57   2                       0                   3.524      26.143999999999998
    58   1                       0      5.2859999999999996      27.905999999999999
    59   1                   1.762                   3.524      27.905999999999999
    60   1                   1.762      5.2859999999999996      26.143999999999998
    61   2                       0                   3.524      29.667999999999999
    62   1                       0      5.2859999999999996                   31.43
    63   1                   1.762                   3.524                   31.43
    64   4                   1.762      5.2859999999999996      29.667999999999999
    65   1                       0                   7.048                       5
    66   1                       0      8.8100000000000005      6.7620000000000005
    67   4                   1.762                   7.048      6.7620000000000005
    68   1                   1.762      8.8100000000000005                       5
    69   1                       0                   7.048      8.5240000000000009
    70   1                       0      8.8100000000000005                  10.286
    71   1                   1.762                   7.048                  10.286
    72   1                   1.762      8.8100000000000005      8.5240000000000009
    73   1                       0                   7.048                  12.048
    74   2                       0      8.8100000000000005                   13.81
    75   1                   1.762                   7.048                   13.81
    76   2                   1.762      8.8100000000000005                  12.048
    77   1                       0                   7.048      15.571999999999999
    78   2                       0      8.8100000000000005                  17.334
    79   1                   1.762                   7.048                  17.334
    80   4                   1.762      8.8100000000000005      15.571999999999999
    81   1                       0                   7.048                  19.096
    82   1                       0      8.8100000000000005      20.858000000000001
    83   1                   1.762                   7.048      20.858000000000001
    84   1                   1.762      8.8100000000000005                  19.096
    85   2                       0                   7.048      22.620000000000001
    86   1                       0      8.8100000000000005      24.382000000000001
    87   1                   1.762                   7.048      24.382000000000001
    88   1                   1.762      8.8100000000000005      22.620000000000001
    89   1                       0                   7.048      26.143999999999998
    90   1                       0      8.8100000000000005      27.905999999999999
    91   1                   1.762                   7.048      27.905999999999999
    92   1                   1.762      8.8100000000000005      26.143999999999998
    93   6                       0                   7.048      29.667999999999999
    94   4                       0      8.8100000000000005                   31.43
    95   1                   1.762                   7.048                   31.43
    96   1                   1.762      8.8100000000000005      29.667999999999999
    97   1                   3.524                       0                       5
    98   3                   3.524                   1.762      6.7620000000000005
    99   1      5.2859999999999996                       0      6.7620000000000005
   100   1      5.2859999999999996                   1.762                       5
   101   1                   3.524                       0      8.5240000000000009
   102   3                   3.524                   1.762                  10.286
   103   1      5.2859999999999996                       0                  10.286
   104   1      5.2859999999999996                   1.762      8.5240000000000009
   105   1                   3.524                       0                  12.048
   106   1                   3.524                   1.762                   13.81
   107   1      5.2859999999999996                       0                   13.81
   108   1      5.2859999999999996                   1.762                  12.048
   109   1                   3.524                       0      15.571999999999999
   110   1                   3.524                   1.762                  17.334
   111   1      5.2859999999999996                       0                  17.334
   112   2      5.2859999999999996                   1.762      15.571999999999999
   113   1                   3.524                       0                  19.096
   114   2                   3.524                   1.762      20.858000000000001
   115   1      5.2859999999999996                       0      20.858000000000001
   116   1      5.2859999999999996                   1.762                  19.096
   117   2                   3.524                       0      22.620000000000001
   118   3                   3.524                   1.762      24.382000000000001
   119   1      5.2859999999999996                       0      24.382000000000001
   120   1      5.2859999999999996                   1.762      22.620000000000001
   121   1                   3.524                       0      26.143999999999998
   122   1                   3.524                   1.762      27.905999999999999
   123   1      5.2859999999999996                       0      27.905999999999999
   124   1      5.2859999999999996                   1.762      26.143999999999998
   125   1                   3.524                       0      29.667999999999999
   126   1                   3.524                   1.762                   31.43
   127   1      5.2859999999999996                       0                   31.43
   128   1      5.2859999999999996                   1.762      29.667999999999999
   129   1                   3.524                   3.524                       5
   130   1                   3.524      5.2859999999999996      6.7620000000000005
   131   1      5.2859999999999996                   3.524      6.7620000000000005
   132   1      5.2859999999999996      5.2859999999999996                       5
   133   3                   3.524                   3.524      8.5240000000000009
   134   1                   3.524      5.2859999999999996                  10.286
   135   1      5.2859999999999996                   3.524                  10.286
   136   1      5.2859999999999996      5.2859999999999996      8.5240000000000009
   137   1                   3.524                   3.524                  12.048
   138   1                   3.524      5.2859999999999996                   13.81
   139   1      5.2859999999999996                   3.524                   13.81
   140   1      5.2859999999999996      5.2859999999999996                  12.048
   141   2                   3.524                   3.524      15.571999999999999
   142   1                   3.524      5.2859999999999996                  17.334
   143   1      5.2859999999999996                   3.524                  17.334
   144   3      5.2859999999999996      5.2859999999999996      15.571999999999999
   145   3                   3.524                   3.524                  19.096
   146   1                   3.524      5.2859999999999996      20.858000000000001
   147   4      5.2859999999999996                   3.524      20.858000000000001
   148   2      5.2859999999999996      5.2859999999999996                  19.096
   149   1                   3.524                   3.524      22.620000000000001
   150   1                   3.524      5.2859999999999996      24.382000000000001
   151   1      5.2859999999999996                   3.524      24.382000000000001
   152   1      5.2859999999999996      5.2859999999999996      22.620000000000001
   153   1                   3.524                   3.524      26.143999999999998
   154   1                   3.524      5.2859999999999996      27.905999999999999
   155   3      5.2859999999999996                   3.524      27.905999999999999
   156   3      5.2859999999999996      5.2859999999999996      26.143999999999998
   157   1                   3.524                   3.524      29.667999999999999
   158   2                   3.524      5.2859999999999996                   31.43
   159   3      5.2859999999999996                   3.524                   31.43
   160   1      5.2859999999999996      5.2859999999999996      29.667999999999999
   161   1                   3.524                   7.048                       5
   162   1                   3.524      8.8100000000000005      6.7620000000000005
   163   1      5.2859999999999996                   7.048      6.7620000000000005
   164   1      5.2859999999999996      8.8100000000000005                       5
   165   1                   3.524                   7.048      8.5240000000000009
   166   3                   3.524      8.8100000000000005                  10.286
   167   1      5.2859999999999996                   7.048                  10.286
   168   3      5.2859999999999996      8.8100000000000005      8.5240000000000009
   169   3                   3.524                   7.048                  12.048
   170   1                   3.524      8.8100000000000005                   13.81
   171   1      5.2859999999999996                   7.048                   13.81
   172   1      5.2859999999999996      8.8100000000000005                  12.048
   173   2                   3.524                   7.048      15.571999999999999
   174   3                   3.524      8.8100000000000005                  17.334
   175   1      5.2859999999999996                   7.048                  17.334
   176   1      5.2859999999999996      8.8100000000000005      15.571999999999999
   177   1                   3.524                   7.048                  19.096
   178   1                   3.524      8.8100000000000005      20.858000000000001
   179   1      5.2859999999999996                   7.048      20.858000000000001
   180   4      5.2859999999999996      8.8100000000000005                  19.096
   181   1                   3.524                   7.048      22.620000000000001
   182   2                   3.524      8.8100000000000005      24.382000000000001
   183   1      5.2859999999999996                   7.048      24.382000000000001
   184   3      5.2859999999999996      8.8100000000000005      22.620000000000001
   185   1                   3.524                   7.048      26.143999999999998
   186   3                   3.524      8.8100000000000005      27.905999999999999
   187   1      5.2859999999999996                   7.048      27.905999999999999
   188   1      5.2859999999999996      8.8100000000000005      26.143999999999998
   189   1                   3.524                   7.048      29.667999999999999
   190   1                   3.524      8.8100000000000005                   31.43
   191   1      5.2859999999999996                   7.048                   31.43
   192   1      5.2859999999999996      8.8100000000000005      29.667999999999999
   193   1                   7.048                       0                       5
   194   1                   7.048                   1.762      6.7620000000000005
   195   4      8.8100000000000005                       0      6.7620000000000005
   196   2      8.8100000000000005                   1.762                       5
   197   1                   7.048                       0      8.5240000000000009
   198   1                   7.048                   1.762                  10.286
   199   1      8.8100000000000005                       0                  10.286
   200   1      8.8100000000000005                   1.762      8.5240000000000009
   201   1                   7.048                       0                  12.048
   202   1                   7.048                   1.762                   13.81
   203   3      8.8100000000000005                       0                   13.81
   204   1      8.8100000000000005                   1.762                  12.048
   205   1                   7.048                       0      15.571999999999999
   206   1                   7.048                   1.762                  17.334
   207   1      8.8100000000000005                       0                  17.334
   208   3      8.8100000000000005                   1.762      15.571999999999999
   209   1                   7.048                       0                  19.096
   210   1                   7.048                   1.762      20.858000000000001
   211   1      8.8100000000000005                       0      20.858000000000001
   212   1      8.8100000000000005                   1.762                  19.096
   213   1                   7.048                       0      22.620000000000001
   214   1                   7.048                   1.762      24.382000000000001
   215   1      8.8100000000000005                       0      24.382000000000001
   216   1      8.8100000000000005                   1.762      22.620000000000001
   217   2                   7.048                       0      26.143999999999998
   218   1                   7.048                   1.762      27.905999999999999
   219   1      8.8100000000000005                       0      27.905999999999999
   220   1      8.8100000000000005                   1.762      26.143999999999998
   221   1                   7.048                       0      29.667999999999999
   222   1                   7.048                   1.762                   31.43
   223   2      8.8100000000000005                       0                   31.43
   224   1      8.8100000000000005                   1.762      29.667999999999999
   225   2                   7.048                   3.524                       5
   226   1                   7.048      5.2859999999999996      6.7620000000000005
   227   1      8.8100000000000005                   3.524      6.7620000000000005
   228   1      8.8100000000000005      5.2859999999999996                       5
   229   1                   7.048                   3.524      8.5240000000000009
   230   1                   7.048      5.2859999999999996                  10.286
   231   1      8.8100000000000005                   3.524                  10.286
   232   3      8.8100000000000005      5.2859999999999996      8.5240000000000009
   233   1                   7.048                   3.524                  12.048
   234   1                   7.048      5.2859999999999996                   13.81
   235   1      8.8100000000000005                   3.524                   13.81
   236   1      8.8100000000000005      5.2859999999999996                  12.048
   237   3                   7.048                   3.524      15.571999999999999
   238   2                   7.048      5.2859999999999996                  17.334
   239   1      8.8100000000000005                   3.524                  17.334
   240   3      8.8100000000000005      5.2859999999999996      15.571999999999999
   241   1                   7.048                   3.524                  19.096
   242   1                   7.048      5.2859999999999996      20.858000000000001
   243   1      8.8100000000000005                   3.524      20.858000000000001
   244   1      8.8100000000000005      5.2859999999999996                  19.096
   245   1                   7.048                   3.524      22.620000000000001
   246   1                   7.048      5.2859999999999996      24.382000000000001
   247   1      8.8100000000000005                   3.524      24.382000000000001
   248   1      8.8100000000000005      5.2859999999999996      22.620000000000001
   249   1                   7.048                   3.524      26.143999999999998
   250   1                   7.048      5.2859999999999996      27.905999999999999
   251   2      8.8100000000000005                   3.524      27.905999999999999
   252   1      8.8100000000000005      5.2859999999999996      26.143999999999998
   253   1                   7.048                   3.524      29.667999999999999
   254   3                   7.048      5.2859999999999996                   31.43
   255   3      8.8100000000000005                   3.524                   31.43
   256   4      8.8100000000000005      5.2859999999999996      29.667999999999999
   257   2                   7.048                   7.048                       5
   258   1                   7.048      8.8100000000000005      6.7620000000000005
   259   1      8.8100000000000005                   7.048      6.7620000000000005
   260   1      8.8100000000000005      8.8100000000000005                       5
   261   1                   7.048                   7.048      8.5240000000000009
   262   1                   7.048      8.8100000000000005                  10.286
   263   1      8.8100000000000005                   7.048                  10.286
   264   1      8.8100000000000005      8.8100000000000005      8.5240000000000009
   265   1                   7.048                   7.048                  12.048
   266   1                   7.048      8.8100000000000005                   13.81
   267   1      8.8100000000000005                   7.048                   13.81
   268   2      8.8100000000000005      8.8100000000000005                  12.048
   269   1                   7.048                   7.048      15.571999999999999
   270   1                   7.048      8.8100000000000005                  17.334
   271   1      8.8100000000000005                   7.048                  17.334
   272   1      8.8100000000000005      8.8100000000000005      15.571999999999999
   273   1                   7.048                   7.048                  19.096
   274   1                   7.048      8.8100000000000005      20.858000000000001
   275   1      8.8100000000000005                   7.048      20.858000000000001
   276   1      8.8100000000000005      8.8100000000000005                  19.096
   277   1                   7.048                   7.048      22.620000000000001
   278   4                   7.048      8.8100000000000005      24.382000000000001
   279   1      8.8100000000000005                   7.048      24.382000000000001
   280   2      8.8100000000000005      8.8100000000000005      22.620000000000001
   281   6                   7.048                   7.048      26.143999999999998
   282   1                   7.048      8.8100000000000005      27.905999999999999
   283   1      8.8100000000000005                   7.048      27.905999999999999
   284   1      8.8100000000000005      8.8100000000000005      26.143999999999998
   285   1                   7.048                   7.048      29.667999999999999
   286   1                   7.048      8.8100000000000005                   31.43
   287   2      8.8100000000000005                   7.048                   31.43
   288   1      8.8100000000000005      8.8100000000000005      29.667999999999999

Masses

1  58.693  # Ni
2  95.960  # Mo
3  51.996  # Cr
4  55.845  # Fe
5  12.011  # C
6  26.982  # Al
7  10.811  # B
