(written by ASE)

480 atoms
7 atom types

0.0      10.571999999999999  xlo xhi
0.0      17.620000000000001  ylo yhi
0.0                   36.43  zlo zhi

Atoms # atomic

     1   2                       0                       0                       5
     2   1                       0                   1.762      6.7620000000000005
     3   1                   1.762                       0      6.7620000000000005
     4   1                   1.762                   1.762                       5
     5   1                       0                       0      8.5240000000000009
     6   1                       0                   1.762                  10.286
     7   1                   1.762                       0                  10.286
     8   1                   1.762                   1.762      8.5240000000000009
     9   1                       0                       0                  12.048
    10   2                       0                   1.762                   13.81
    11   1                   1.762                       0                   13.81
    12   2                   1.762                   1.762                  12.048
    13   1                       0                       0      15.571999999999999
    14   1                       0                   1.762                  17.334
    15   1                   1.762                       0                  17.334
    16   3                   1.762                   1.762      15.571999999999999
    17   1                       0                       0                  19.096
    18   1                       0                   1.762      20.858000000000001
    19   2                   1.762                       0      20.858000000000001
    20   3                   1.762                   1.762                  19.096
    21   1                       0                       0      22.620000000000001
    22   1                       0                   1.762      24.382000000000001
    23   4                   1.762                       0      24.382000000000001
    24   1                   1.762                   1.762      22.620000000000001
    25   1                       0                       0      26.143999999999998
    26   4                       0                   1.762      27.905999999999999
    27   1                   1.762                       0      27.905999999999999
    28   1                   1.762                   1.762      26.143999999999998
    29   1                       0                       0      29.667999999999999
    30   1                       0                   1.762                   31.43
    31   2                   1.762                       0                   31.43
    32   1                   1.762                   1.762      29.667999999999999
    33   1                       0                   3.524                       5
    34   2                       0      5.2859999999999996      6.7620000000000005
    35   1                   1.762                   3.524      6.7620000000000005
    36   1                   1.762      5.2859999999999996                       5
    37   1                       0                   3.524      8.5240000000000009
    38   1                       0      5.2859999999999996                  10.286
    39   1                   1.762                   3.524                  10.286
    40   2                   1.762      5.2859999999999996      8.5240000000000009
    41   1                       0                   3.524                  12.048
    42   1                       0      5.2859999999999996                   13.81
    43   4                   1.762                   3.524                   13.81
    44   1                   1.762      5.2859999999999996                  12.048
    45   1                       0                   3.524      15.571999999999999
    46   1                       0      5.2859999999999996                  17.334
    47   4                   1.762                   3.524                  17.334
    48   1                   1.762      5.2859999999999996      15.571999999999999
    49   1                       0                   3.524                  19.096
    50   1                       0      5.2859999999999996      20.858000000000001
    51   1                   1.762                   3.524      20.858000000000001
    52   1                   1.762      5.2859999999999996                  19.096
    53   1                       0                   3.524      22.620000000000001
    54   1                       0      5.2859999999999996      24.382000000000001
    55   1                   1.762                   3.524      24.382000000000001
    56   2                   1.762      5.2859999999999996      22.620000000000001
    57   3                       0                   3.524      26.143999999999998
    58   6                       0      5.2859999999999996      27.905999999999999
    59   1                   1.762                   3.524      27.905999999999999
    60   1                   1.762      5.2859999999999996      26.143999999999998
    61   1                       0                   3.524      29.667999999999999
    62   1                       0      5.2859999999999996                   31.43
    63   1                   1.762                   3.524                   31.43
    64   2                   1.762      5.2859999999999996      29.667999999999999
    65   1                       0                   7.048                       5
    66   1                       0      8.8100000000000005      6.7620000000000005
    67   1                   1.762                   7.048      6.7620000000000005
    68   1                   1.762      8.8100000000000005                       5
    69   3                       0                   7.048      8.5240000000000009
    70   1                       0      8.8100000000000005                  10.286
    71   2                   1.762                   7.048                  10.286
    72   1                   1.762      8.8100000000000005      8.5240000000000009
    73   3                       0                   7.048                  12.048
    74   2                       0      8.8100000000000005                   13.81
    75   1                   1.762                   7.048                   13.81
    76   3                   1.762      8.8100000000000005                  12.048
    77   2                       0                   7.048      15.571999999999999
    78   2                       0      8.8100000000000005                  17.334
    79   3                   1.762                   7.048                  17.334
    80   3                   1.762      8.8100000000000005      15.571999999999999
    81   1                       0                   7.048                  19.096
    82   1                       0      8.8100000000000005      20.858000000000001
    83   3                   1.762                   7.048      20.858000000000001
    84   1                   1.762      8.8100000000000005                  19.096
    85   1                       0                   7.048      22.620000000000001
    86   1                       0      8.8100000000000005      24.382000000000001
    87   1                   1.762                   7.048      24.382000000000001
    88   1                   1.762      8.8100000000000005      22.620000000000001
    89   1                       0                   7.048      26.143999999999998
    90   1                       0      8.8100000000000005      27.905999999999999
    91   2                   1.762                   7.048      27.905999999999999
    92   1                   1.762      8.8100000000000005      26.143999999999998
    93   1                       0                   7.048      29.667999999999999
    94   2                       0      8.8100000000000005                   31.43
    95   1                   1.762                   7.048                   31.43
    96   1                   1.762      8.8100000000000005      29.667999999999999
    97   1                       0      10.571999999999999                       5
    98   1                       0                  12.334      6.7620000000000005
    99   1                   1.762      10.571999999999999      6.7620000000000005
   100   1                   1.762                  12.334                       5
   101   1                       0      10.571999999999999      8.5240000000000009
   102   3                       0                  12.334                  10.286
   103   1                   1.762      10.571999999999999                  10.286
   104   1                   1.762                  12.334      8.5240000000000009
   105   2                       0      10.571999999999999                  12.048
   106   1                       0                  12.334                   13.81
   107   1                   1.762      10.571999999999999                   13.81
   108   1                   1.762                  12.334                  12.048
   109   1                       0      10.571999999999999      15.571999999999999
   110   1                       0                  12.334                  17.334
   111   1                   1.762      10.571999999999999                  17.334
   112   1                   1.762                  12.334      15.571999999999999
   113   1                       0      10.571999999999999                  19.096
   114   3                       0                  12.334      20.858000000000001
   115   1                   1.762      10.571999999999999      20.858000000000001
   116   1                   1.762                  12.334                  19.096
   117   1                       0      10.571999999999999      22.620000000000001
   118   2                       0                  12.334      24.382000000000001
   119   1                   1.762      10.571999999999999      24.382000000000001
   120   1                   1.762                  12.334      22.620000000000001
   121   1                       0      10.571999999999999      26.143999999999998
   122   1                       0                  12.334      27.905999999999999
   123   1                   1.762      10.571999999999999      27.905999999999999
   124   1                   1.762                  12.334      26.143999999999998
   125   1                       0      10.571999999999999      29.667999999999999
   126   1                       0                  12.334                   31.43
   127   4                   1.762      10.571999999999999                   31.43
   128   1                   1.762                  12.334      29.667999999999999
   129   1                       0                  14.096                       5
   130   1                       0      15.858000000000001      6.7620000000000005
   131   1                   1.762                  14.096      6.7620000000000005
   132   5                   1.762      15.858000000000001                       5
   133   4                       0                  14.096      8.5240000000000009
   134   1                       0      15.858000000000001                  10.286
   135   1                   1.762                  14.096                  10.286
   136   1                   1.762      15.858000000000001      8.5240000000000009
   137   1                       0                  14.096                  12.048
   138   3                       0      15.858000000000001                   13.81
   139   1                   1.762                  14.096                   13.81
   140   1                   1.762      15.858000000000001                  12.048
   141   4                       0                  14.096      15.571999999999999
   142   1                       0      15.858000000000001                  17.334
   143   1                   1.762                  14.096                  17.334
   144   1                   1.762      15.858000000000001      15.571999999999999
   145   1                       0                  14.096                  19.096
   146   1                       0      15.858000000000001      20.858000000000001
   147   1                   1.762                  14.096      20.858000000000001
   148   1                   1.762      15.858000000000001                  19.096
   149   3                       0                  14.096      22.620000000000001
   150   1                       0      15.858000000000001      24.382000000000001
   151   1                   1.762                  14.096      24.382000000000001
   152   1                   1.762      15.858000000000001      22.620000000000001
   153   1                       0                  14.096      26.143999999999998
   154   3                       0      15.858000000000001      27.905999999999999
   155   3                   1.762                  14.096      27.905999999999999
   156   2                   1.762      15.858000000000001      26.143999999999998
   157   1                       0                  14.096      29.667999999999999
   158   1                       0      15.858000000000001                   31.43
   159   1                   1.762                  14.096                   31.43
   160   1                   1.762      15.858000000000001      29.667999999999999
   161   1                   3.524                       0                       5
   162   1                   3.524                   1.762      6.7620000000000005
   163   1      5.2859999999999996                       0      6.7620000000000005
   164   1      5.2859999999999996                   1.762                       5
   165   1                   3.524                       0      8.5240000000000009
   166   1                   3.524                   1.762                  10.286
   167   1      5.2859999999999996                       0                  10.286
   168   1      5.2859999999999996                   1.762      8.5240000000000009
   169   1                   3.524                       0                  12.048
   170   1                   3.524                   1.762                   13.81
   171   1      5.2859999999999996                       0                   13.81
   172   1      5.2859999999999996                   1.762                  12.048
   173   2                   3.524                       0      15.571999999999999
   174   2                   3.524                   1.762                  17.334
   175   1      5.2859999999999996                       0                  17.334
   176   3      5.2859999999999996                   1.762      15.571999999999999
   177   6                   3.524                       0                  19.096
   178   1                   3.524                   1.762      20.858000000000001
   179   1      5.2859999999999996                       0      20.858000000000001
   180   1      5.2859999999999996                   1.762                  19.096
   181   2                   3.524                       0      22.620000000000001
   182   1                   3.524                   1.762      24.382000000000001
   183   1      5.2859999999999996                       0      24.382000000000001
   184   1      5.2859999999999996                   1.762      22.620000000000001
   185   1                   3.524                       0      26.143999999999998
   186   2                   3.524                   1.762      27.905999999999999
   187   1      5.2859999999999996                       0      27.905999999999999
   188   1      5.2859999999999996                   1.762      26.143999999999998
   189   1                   3.524                       0      29.667999999999999
   190   1                   3.524                   1.762                   31.43
   191   1      5.2859999999999996                       0                   31.43
   192   1      5.2859999999999996                   1.762      29.667999999999999
   193   4                   3.524                   3.524                       5
   194   1                   3.524      5.2859999999999996      6.7620000000000005
   195   1      5.2859999999999996                   3.524      6.7620000000000005
   196   1      5.2859999999999996      5.2859999999999996                       5
   197   1                   3.524                   3.524      8.5240000000000009
   198   1                   3.524      5.2859999999999996                  10.286
   199   1      5.2859999999999996                   3.524                  10.286
   200   1      5.2859999999999996      5.2859999999999996      8.5240000000000009
   201   1                   3.524                   3.524                  12.048
   202   1                   3.524      5.2859999999999996                   13.81
   203   1      5.2859999999999996                   3.524                   13.81
   204   2      5.2859999999999996      5.2859999999999996                  12.048
   205   1                   3.524                   3.524      15.571999999999999
   206   1                   3.524      5.2859999999999996                  17.334
   207   1      5.2859999999999996                   3.524                  17.334
   208   1      5.2859999999999996      5.2859999999999996      15.571999999999999
   209   3                   3.524                   3.524                  19.096
   210   4                   3.524      5.2859999999999996      20.858000000000001
   211   1      5.2859999999999996                   3.524      20.858000000000001
   212   3      5.2859999999999996      5.2859999999999996                  19.096
   213   1                   3.524                   3.524      22.620000000000001
   214   1                   3.524      5.2859999999999996      24.382000000000001
   215   1      5.2859999999999996                   3.524      24.382000000000001
   216   1      5.2859999999999996      5.2859999999999996      22.620000000000001
   217   1                   3.524                   3.524      26.143999999999998
   218   1                   3.524      5.2859999999999996      27.905999999999999
   219   3      5.2859999999999996                   3.524      27.905999999999999
   220   1      5.2859999999999996      5.2859999999999996      26.143999999999998
   221   2                   3.524                   3.524      29.667999999999999
   222   1                   3.524      5.2859999999999996                   31.43
   223   3      5.2859999999999996                   3.524                   31.43
   224   1      5.2859999999999996      5.2859999999999996      29.667999999999999
   225   1                   3.524                   7.048                       5
   226   1                   3.524      8.8100000000000005      6.7620000000000005
   227   1      5.2859999999999996                   7.048      6.7620000000000005
   228   1      5.2859999999999996      8.8100000000000005                       5
   229   4                   3.524                   7.048      8.5240000000000009
   230   1                   3.524      8.8100000000000005                  10.286
   231   1      5.2859999999999996                   7.048                  10.286
   232   1      5.2859999999999996      8.8100000000000005      8.5240000000000009
   233   1                   3.524                   7.048                  12.048
   234   1                   3.524      8.8100000000000005                   13.81
   235   3      5.2859999999999996                   7.048                   13.81
   236   1      5.2859999999999996      8.8100000000000005                  12.048
   237   1                   3.524                   7.048      15.571999999999999
   238   3                   3.524      8.8100000000000005                  17.334
   239   1      5.2859999999999996                   7.048                  17.334
   240   1      5.2859999999999996      8.8100000000000005      15.571999999999999
   241   1                   3.524                   7.048                  19.096
   242   1                   3.524      8.8100000000000005      20.858000000000001
   243   1      5.2859999999999996                   7.048      20.858000000000001
   244   1      5.2859999999999996      8.8100000000000005                  19.096
   245   1                   3.524                   7.048      22.620000000000001
   246   1                   3.524      8.8100000000000005      24.382000000000001
   247   1      5.2859999999999996                   7.048      24.382000000000001
   248   1      5.2859999999999996      8.8100000000000005      22.620000000000001
   249   1                   3.524                   7.048      26.143999999999998
   250   3                   3.524      8.8100000000000005      27.905999999999999
   251   1      5.2859999999999996                   7.048      27.905999999999999
   252   1      5.2859999999999996      8.8100000000000005      26.143999999999998
   253   1                   3.524                   7.048      29.667999999999999
   254   3                   3.524      8.8100000000000005                   31.43
   255   1      5.2859999999999996                   7.048                   31.43
   256   1      5.2859999999999996      8.8100000000000005      29.667999999999999
   257   1                   3.524      10.571999999999999                       5
   258   1                   3.524                  12.334      6.7620000000000005
   259   1      5.2859999999999996      10.571999999999999      6.7620000000000005
   260   1      5.2859999999999996                  12.334                       5
   261   1                   3.524      10.571999999999999      8.5240000000000009
   262   2                   3.524                  12.334                  10.286
   263   1      5.2859999999999996      10.571999999999999                  10.286
   264   1      5.2859999999999996                  12.334      8.5240000000000009
   265   1                   3.524      10.571999999999999                  12.048
   266   1                   3.524                  12.334                   13.81
   267   3      5.2859999999999996      10.571999999999999                   13.81
   268   1      5.2859999999999996                  12.334                  12.048
   269   2                   3.524      10.571999999999999      15.571999999999999
   270   1                   3.524                  12.334                  17.334
   271   1      5.2859999999999996      10.571999999999999                  17.334
   272   1      5.2859999999999996                  12.334      15.571999999999999
   273   1                   3.524      10.571999999999999                  19.096
   274   1                   3.524                  12.334      20.858000000000001
   275   1      5.2859999999999996      10.571999999999999      20.858000000000001
   276   1      5.2859999999999996                  12.334                  19.096
   277   1                   3.524      10.571999999999999      22.620000000000001
   278   2                   3.524                  12.334      24.382000000000001
   279   1      5.2859999999999996      10.571999999999999      24.382000000000001
   280   1      5.2859999999999996                  12.334      22.620000000000001
   281   1                   3.524      10.571999999999999      26.143999999999998
   282   2                   3.524                  12.334      27.905999999999999
   283   1      5.2859999999999996      10.571999999999999      27.905999999999999
   284   1      5.2859999999999996                  12.334      26.143999999999998
   285   1                   3.524      10.571999999999999      29.667999999999999
   286   1                   3.524                  12.334                   31.43
   287   1      5.2859999999999996      10.571999999999999                   31.43
   288   1      5.2859999999999996                  12.334      29.667999999999999
   289   1                   3.524                  14.096                       5
   290   1                   3.524      15.858000000000001      6.7620000000000005
   291   6      5.2859999999999996                  14.096      6.7620000000000005
   292   1      5.2859999999999996      15.858000000000001                       5
   293   1                   3.524                  14.096      8.5240000000000009
   294   1                   3.524      15.858000000000001                  10.286
   295   1      5.2859999999999996                  14.096                  10.286
   296   1      5.2859999999999996      15.858000000000001      8.5240000000000009
   297   1                   3.524                  14.096                  12.048
   298   1                   3.524      15.858000000000001                   13.81
   299   2      5.2859999999999996                  14.096                   13.81
   300   1      5.2859999999999996      15.858000000000001                  12.048
   301   1                   3.524                  14.096      15.571999999999999
   302   2                   3.524      15.858000000000001                  17.334
   303   2      5.2859999999999996                  14.096                  17.334
   304   1      5.2859999999999996      15.858000000000001      15.571999999999999
   305   3                   3.524                  14.096                  19.096
   306   3                   3.524      15.858000000000001      20.858000000000001
   307   1      5.2859999999999996                  14.096      20.858000000000001
   308   1      5.2859999999999996      15.858000000000001                  19.096
   309   1                   3.524                  14.096      22.620000000000001
   310   1                   3.524      15.858000000000001      24.382000000000001
   311   3      5.2859999999999996                  14.096      24.382000000000001
   312   3      5.2859999999999996      15.858000000000001      22.620000000000001
   313   1                   3.524                  14.096      26.143999999999998
   314   1                   3.524      15.858000000000001      27.905999999999999
   315   1      5.2859999999999996                  14.096      27.905999999999999
   316   1      5.2859999999999996      15.858000000000001      26.143999999999998
   317   1                   3.524                  14.096      29.667999999999999
   318   1                   3.524      15.858000000000001                   31.43
   319   1      5.2859999999999996                  14.096                   31.43
   320   1      5.2859999999999996      15.858000000000001      29.667999999999999
   321   3                   7.048                       0                       5
   322   2                   7.048                   1.762      6.7620000000000005
   323   3      8.8100000000000005                       0      6.7620000000000005
   324   2      8.8100000000000005                   1.762                       5
   325   1                   7.048                       0      8.5240000000000009
   326   1                   7.048                   1.762                  10.286
   327   1      8.8100000000000005                       0                  10.286
   328   1      8.8100000000000005                   1.762      8.5240000000000009
   329   1                   7.048                       0                  12.048
   330   1                   7.048                   1.762                   13.81
   331   1      8.8100000000000005                       0                   13.81
   332   1      8.8100000000000005                   1.762                  12.048
   333   2                   7.048                       0      15.571999999999999
   334   1                   7.048                   1.762                  17.334
   335   3      8.8100000000000005                       0                  17.334
   336   1      8.8100000000000005                   1.762      15.571999999999999
   337   1                   7.048                       0                  19.096
   338   1                   7.048                   1.762      20.858000000000001
   339   1      8.8100000000000005                       0      20.858000000000001
   340   1      8.8100000000000005                   1.762                  19.096
   341   3                   7.048                       0      22.620000000000001
   342   1                   7.048                   1.762      24.382000000000001
   343   1      8.8100000000000005                       0      24.382000000000001
   344   1      8.8100000000000005                   1.762      22.620000000000001
   345   1                   7.048                       0      26.143999999999998
   346   1                   7.048                   1.762      27.905999999999999
   347   1      8.8100000000000005                       0      27.905999999999999
   348   1      8.8100000000000005                   1.762      26.143999999999998
   349   1                   7.048                       0      29.667999999999999
   350   3                   7.048                   1.762                   31.43
   351   1      8.8100000000000005                       0                   31.43
   352   1      8.8100000000000005                   1.762      29.667999999999999
   353   1                   7.048                   3.524                       5
   354   1                   7.048      5.2859999999999996      6.7620000000000005
   355   1      8.8100000000000005                   3.524      6.7620000000000005
   356   1      8.8100000000000005      5.2859999999999996                       5
   357   1                   7.048                   3.524      8.5240000000000009
   358   1                   7.048      5.2859999999999996                  10.286
   359   2      8.8100000000000005                   3.524                  10.286
   360   1      8.8100000000000005      5.2859999999999996      8.5240000000000009
   361   4                   7.048                   3.524                  12.048
   362   1                   7.048      5.2859999999999996                   13.81
   363   1      8.8100000000000005                   3.524                   13.81
   364   1      8.8100000000000005      5.2859999999999996                  12.048
   365   1                   7.048                   3.524      15.571999999999999
   366   1                   7.048      5.2859999999999996                  17.334
   367   1      8.8100000000000005                   3.524                  17.334
   368   1      8.8100000000000005      5.2859999999999996      15.571999999999999
   369   1                   7.048                   3.524                  19.096
   370   1                   7.048      5.2859999999999996      20.858000000000001
   371   1      8.8100000000000005                   3.524      20.858000000000001
   372   1      8.8100000000000005      5.2859999999999996                  19.096
   373   1                   7.048                   3.524      22.620000000000001
   374   1                   7.048      5.2859999999999996      24.382000000000001
   375   1      8.8100000000000005                   3.524      24.382000000000001
   376   2      8.8100000000000005      5.2859999999999996      22.620000000000001
   377   1                   7.048                   3.524      26.143999999999998
   378   2                   7.048      5.2859999999999996      27.905999999999999
   379   1      8.8100000000000005                   3.524      27.905999999999999
   380   1      8.8100000000000005      5.2859999999999996      26.143999999999998
   381   2                   7.048                   3.524      29.667999999999999
   382   1                   7.048      5.2859999999999996                   31.43
   383   1      8.8100000000000005                   3.524                   31.43
   384   1      8.8100000000000005      5.2859999999999996      29.667999999999999
   385   1                   7.048                   7.048                       5
   386   1                   7.048      8.8100000000000005      6.7620000000000005
   387   1      8.8100000000000005                   7.048      6.7620000000000005
   388   1      8.8100000000000005      8.8100000000000005                       5
   389   1                   7.048                   7.048      8.5240000000000009
   390   1                   7.048      8.8100000000000005                  10.286
   391   2      8.8100000000000005                   7.048                  10.286
   392   2      8.8100000000000005      8.8100000000000005      8.5240000000000009
   393   1                   7.048                   7.048                  12.048
   394   1                   7.048      8.8100000000000005                   13.81
   395   2      8.8100000000000005                   7.048                   13.81
   396   1      8.8100000000000005      8.8100000000000005                  12.048
   397   1                   7.048                   7.048      15.571999999999999
   398   1                   7.048      8.8100000000000005                  17.334
   399   1      8.8100000000000005                   7.048                  17.334
   400   2      8.8100000000000005      8.8100000000000005      15.571999999999999
   401   4                   7.048                   7.048                  19.096
   402   1                   7.048      8.8100000000000005      20.858000000000001
   403   1      8.8100000000000005                   7.048      20.858000000000001
   404   1      8.8100000000000005      8.8100000000000005                  19.096
   405   1                   7.048                   7.048      22.620000000000001
   406   1                   7.048      8.8100000000000005      24.382000000000001
   407   4      8.8100000000000005                   7.048      24.382000000000001
   408   1      8.8100000000000005      8.8100000000000005      22.620000000000001
   409   4                   7.048                   7.048      26.143999999999998
   410   1                   7.048      8.8100000000000005      27.905999999999999
   411   1      8.8100000000000005                   7.048      27.905999999999999
   412   1      8.8100000000000005      8.8100000000000005      26.143999999999998
   413   1                   7.048                   7.048      29.667999999999999
   414   1                   7.048      8.8100000000000005                   31.43
   415   2      8.8100000000000005                   7.048                   31.43
   416   3      8.8100000000000005      8.8100000000000005      29.667999999999999
   417   1                   7.048      10.571999999999999                       5
   418   1                   7.048                  12.334      6.7620000000000005
   419   1      8.8100000000000005      10.571999999999999      6.7620000000000005
   420   4      8.8100000000000005                  12.334                       5
   421   6                   7.048      10.571999999999999      8.5240000000000009
   422   3                   7.048                  12.334                  10.286
   423   4      8.8100000000000005      10.571999999999999                  10.286
   424   2      8.8100000000000005                  12.334      8.5240000000000009
   425   1                   7.048      10.571999999999999                  12.048
   426   1                   7.048                  12.334                   13.81
   427   1      8.8100000000000005      10.571999999999999                   13.81
   428   1      8.8100000000000005                  12.334                  12.048
   429   1                   7.048      10.571999999999999      15.571999999999999
   430   1                   7.048                  12.334                  17.334
   431   2      8.8100000000000005      10.571999999999999                  17.334
   432   1      8.8100000000000005                  12.334      15.571999999999999
   433   3                   7.048      10.571999999999999                  19.096
   434   2                   7.048                  12.334      20.858000000000001
   435   3      8.8100000000000005      10.571999999999999      20.858000000000001
   436   1      8.8100000000000005                  12.334                  19.096
   437   1                   7.048      10.571999999999999      22.620000000000001
   438   1                   7.048                  12.334      24.382000000000001
   439   1      8.8100000000000005      10.571999999999999      24.382000000000001
   440   1      8.8100000000000005                  12.334      22.620000000000001
   441   1                   7.048      10.571999999999999      26.143999999999998
   442   1                   7.048                  12.334      27.905999999999999
   443   2      8.8100000000000005      10.571999999999999      27.905999999999999
   444   1      8.8100000000000005                  12.334      26.143999999999998
   445   1                   7.048      10.571999999999999      29.667999999999999
   446   1                   7.048                  12.334                   31.43
   447   1      8.8100000000000005      10.571999999999999                   31.43
   448   1      8.8100000000000005                  12.334      29.667999999999999
   449   4                   7.048                  14.096                       5
   450   1                   7.048      15.858000000000001      6.7620000000000005
   451   1      8.8100000000000005                  14.096      6.7620000000000005
   452   1      8.8100000000000005      15.858000000000001                       5
   453   1                   7.048                  14.096      8.5240000000000009
   454   1                   7.048      15.858000000000001                  10.286
   455   1      8.8100000000000005                  14.096                  10.286
   456   1      8.8100000000000005      15.858000000000001      8.5240000000000009
   457   1                   7.048                  14.096                  12.048
   458   4                   7.048      15.858000000000001                   13.81
   459   1      8.8100000000000005                  14.096                   13.81
   460   2      8.8100000000000005      15.858000000000001                  12.048
   461   1                   7.048                  14.096      15.571999999999999
   462   1                   7.048      15.858000000000001                  17.334
   463   1      8.8100000000000005                  14.096                  17.334
   464   3      8.8100000000000005      15.858000000000001      15.571999999999999
   465   3                   7.048                  14.096                  19.096
   466   2                   7.048      15.858000000000001      20.858000000000001
   467   1      8.8100000000000005                  14.096      20.858000000000001
   468   1      8.8100000000000005      15.858000000000001                  19.096
   469   1                   7.048                  14.096      22.620000000000001
   470   1                   7.048      15.858000000000001      24.382000000000001
   471   6      8.8100000000000005                  14.096      24.382000000000001
   472   2      8.8100000000000005      15.858000000000001      22.620000000000001
   473   1                   7.048                  14.096      26.143999999999998
   474   4                   7.048      15.858000000000001      27.905999999999999
   475   2      8.8100000000000005                  14.096      27.905999999999999
   476   3      8.8100000000000005      15.858000000000001      26.143999999999998
   477   1                   7.048                  14.096      29.667999999999999
   478   3                   7.048      15.858000000000001                   31.43
   479   1      8.8100000000000005                  14.096                   31.43
   480   1      8.8100000000000005      15.858000000000001      29.667999999999999

Masses

1  58.693  # Ni
2  95.960  # Mo
3  51.996  # Cr
4  55.845  # Fe
5  12.011  # C
6  26.982  # Al
7  10.811  # B
