SQS from bestsqs2.out
1.0
     17.375730000     0.000000000     0.000000000
      0.000000000    17.375730000     0.000000000
      0.000000000     0.000000000    17.375730000
B C Al Cr Fe Ni Mo
10 10 10 42 18 360 50
Direct
      0.200000000     1.000000000     0.600000000
      0.200000000     0.700000000     0.100000000
      0.200000000     0.500000000     0.500000000
      0.100000000     0.900000000     1.000000000
      0.700000000     0.100000000     0.200000000
      0.300000000     0.300000000     0.200000000
      0.700000000     0.100000000     0.400000000
      0.100000000     0.500000000     0.400000000
      0.500000000     0.500000000     0.600000000
      0.500000000     0.300000000     0.800000000
      0.200000000     0.600000000     1.000000000
      0.400000000     0.600000000     1.000000000
      1.000000000     0.600000000     0.200000000
      0.500000000     0.800000000     0.900000000
      0.100000000     0.500000000     0.200000000
      0.700000000     0.700000000     0.200000000
      0.500000000     0.100000000     0.400000000
      0.900000000     0.300000000     0.600000000
      0.100000000     0.100000000     0.800000000
      0.100000000     0.900000000     0.800000000
      1.000000000     0.200000000     1.000000000
      0.800000000     0.400000000     1.000000000
      0.200000000     0.400000000     0.200000000
      0.200000000     0.200000000     0.400000000
      0.800000000     0.800000000     0.600000000
      0.400000000     0.300000000     0.100000000
      0.600000000     0.900000000     0.900000000
      0.700000000     0.600000000     0.500000000
      0.900000000     0.800000000     0.500000000
      0.100000000     0.200000000     0.900000000
      0.400000000     0.800000000     1.000000000
      0.600000000     0.400000000     0.200000000
      0.200000000     1.000000000     0.400000000
      0.600000000     0.200000000     0.400000000
      0.600000000     0.400000000     0.600000000
      0.800000000     1.000000000     0.800000000
      0.200000000     0.100000000     0.100000000
      1.000000000     0.300000000     0.100000000
      0.800000000     0.700000000     0.100000000
      0.200000000     0.300000000     0.300000000
      1.000000000     0.700000000     0.500000000
      0.400000000     0.700000000     0.500000000
      0.400000000     0.100000000     0.700000000
      1.000000000     0.300000000     0.700000000
      1.000000000     0.100000000     0.900000000
      0.400000000     0.100000000     0.900000000
      0.200000000     0.300000000     0.900000000
      0.200000000     0.700000000     0.900000000
      0.600000000     0.700000000     0.900000000
      0.100000000     0.200000000     0.100000000
      0.300000000     1.000000000     0.300000000
      0.100000000     1.000000000     0.500000000
      0.900000000     1.000000000     0.500000000
      0.700000000     0.200000000     0.500000000
      0.500000000     0.800000000     0.500000000
      0.100000000     0.200000000     0.700000000
      0.900000000     0.200000000     0.700000000
      0.500000000     0.800000000     0.700000000
      0.900000000     0.600000000     0.900000000
      0.900000000     0.500000000     1.000000000
      0.300000000     0.700000000     1.000000000
      0.700000000     0.700000000     1.000000000
      0.500000000     0.100000000     0.200000000
      0.100000000     0.900000000     0.200000000
      0.100000000     0.100000000     0.400000000
      0.900000000     0.500000000     0.400000000
      0.900000000     0.700000000     0.400000000
      0.700000000     0.900000000     0.400000000
      0.900000000     0.900000000     0.400000000
      0.100000000     0.500000000     0.800000000
      0.700000000     0.500000000     0.800000000
      0.900000000     0.700000000     0.800000000
      1.000000000     0.800000000     0.200000000
      0.800000000     1.000000000     0.400000000
      0.200000000     1.000000000     0.800000000
      0.800000000     0.100000000     0.100000000
      0.600000000     0.700000000     0.300000000
      0.800000000     0.100000000     0.500000000
      0.400000000     0.500000000     0.700000000
      0.200000000     0.100000000     0.900000000
      0.900000000     0.600000000     0.100000000
      0.300000000     1.000000000     0.500000000
      0.100000000     0.600000000     0.500000000
      0.500000000     0.600000000     0.500000000
      0.100000000     0.800000000     0.900000000
      0.300000000     0.100000000     1.000000000
      0.500000000     0.100000000     1.000000000
      0.500000000     0.900000000     0.400000000
      0.300000000     0.100000000     0.600000000
      0.700000000     0.900000000     0.600000000
      1.000000000     1.000000000     1.000000000
      0.200000000     1.000000000     1.000000000
      0.400000000     1.000000000     1.000000000
      0.600000000     1.000000000     1.000000000
      0.800000000     1.000000000     1.000000000
      0.200000000     0.200000000     1.000000000
      0.400000000     0.200000000     1.000000000
      0.600000000     0.200000000     1.000000000
      0.800000000     0.200000000     1.000000000
      1.000000000     0.400000000     1.000000000
      0.200000000     0.400000000     1.000000000
      0.400000000     0.400000000     1.000000000
      0.600000000     0.400000000     1.000000000
      0.600000000     0.600000000     1.000000000
      0.800000000     0.600000000     1.000000000
      1.000000000     0.800000000     1.000000000
      0.200000000     0.800000000     1.000000000
      0.600000000     0.800000000     1.000000000
      0.800000000     0.800000000     1.000000000
      1.000000000     1.000000000     0.200000000
      0.200000000     1.000000000     0.200000000
      0.400000000     1.000000000     0.200000000
      0.600000000     1.000000000     0.200000000
      0.800000000     1.000000000     0.200000000
      1.000000000     0.200000000     0.200000000
      0.400000000     0.200000000     0.200000000
      0.600000000     0.200000000     0.200000000
      0.800000000     0.200000000     0.200000000
      1.000000000     0.400000000     0.200000000
      0.200000000     0.600000000     0.200000000
      0.400000000     0.600000000     0.200000000
      0.600000000     0.600000000     0.200000000
      0.800000000     0.600000000     0.200000000
      0.200000000     0.800000000     0.200000000
      0.400000000     0.800000000     0.200000000
      0.600000000     0.800000000     0.200000000
      0.800000000     0.800000000     0.200000000
      1.000000000     1.000000000     0.400000000
      0.400000000     1.000000000     0.400000000
      0.600000000     1.000000000     0.400000000
      1.000000000     0.200000000     0.400000000
      0.400000000     0.200000000     0.400000000
      0.800000000     0.200000000     0.400000000
      1.000000000     0.400000000     0.400000000
      0.200000000     0.400000000     0.400000000
      0.400000000     0.400000000     0.400000000
      0.800000000     0.400000000     0.400000000
      1.000000000     0.600000000     0.400000000
      0.200000000     0.600000000     0.400000000
      0.400000000     0.600000000     0.400000000
      0.600000000     0.600000000     0.400000000
      0.800000000     0.600000000     0.400000000
      1.000000000     0.800000000     0.400000000
      0.200000000     0.800000000     0.400000000
      0.600000000     0.800000000     0.400000000
      0.800000000     0.800000000     0.400000000
      1.000000000     1.000000000     0.600000000
      0.400000000     1.000000000     0.600000000
      0.600000000     1.000000000     0.600000000
      0.800000000     1.000000000     0.600000000
      1.000000000     0.200000000     0.600000000
      0.200000000     0.200000000     0.600000000
      0.400000000     0.200000000     0.600000000
      0.600000000     0.200000000     0.600000000
      0.800000000     0.200000000     0.600000000
      0.200000000     0.400000000     0.600000000
      0.400000000     0.400000000     0.600000000
      0.800000000     0.400000000     0.600000000
      1.000000000     0.600000000     0.600000000
      0.200000000     0.600000000     0.600000000
      0.400000000     0.600000000     0.600000000
      0.600000000     0.600000000     0.600000000
      1.000000000     0.800000000     0.600000000
      0.400000000     0.800000000     0.600000000
      0.600000000     0.800000000     0.600000000
      1.000000000     1.000000000     0.800000000
      0.400000000     1.000000000     0.800000000
      0.600000000     1.000000000     0.800000000
      1.000000000     0.200000000     0.800000000
      0.200000000     0.200000000     0.800000000
      0.400000000     0.200000000     0.800000000
      0.600000000     0.200000000     0.800000000
      0.800000000     0.200000000     0.800000000
      1.000000000     0.400000000     0.800000000
      0.400000000     0.400000000     0.800000000
      0.600000000     0.400000000     0.800000000
      0.800000000     0.400000000     0.800000000
      1.000000000     0.600000000     0.800000000
      0.200000000     0.600000000     0.800000000
      0.400000000     0.600000000     0.800000000
      0.600000000     0.600000000     0.800000000
      0.800000000     0.600000000     0.800000000
      1.000000000     0.800000000     0.800000000
      0.200000000     0.800000000     0.800000000
      0.400000000     0.800000000     0.800000000
      0.600000000     0.800000000     0.800000000
      0.800000000     0.800000000     0.800000000
      1.000000000     0.100000000     0.100000000
      0.600000000     0.100000000     0.100000000
      0.200000000     0.300000000     0.100000000
      0.600000000     0.300000000     0.100000000
      0.800000000     0.300000000     0.100000000
      0.200000000     0.500000000     0.100000000
      0.400000000     0.500000000     0.100000000
      0.600000000     0.500000000     0.100000000
      0.800000000     0.500000000     0.100000000
      1.000000000     0.700000000     0.100000000
      0.400000000     0.700000000     0.100000000
      1.000000000     0.900000000     0.100000000
      0.200000000     0.900000000     0.100000000
      0.400000000     0.900000000     0.100000000
      0.600000000     0.900000000     0.100000000
      0.800000000     0.900000000     0.100000000
      0.400000000     0.100000000     0.300000000
      0.600000000     0.100000000     0.300000000
      0.800000000     0.100000000     0.300000000
      1.000000000     0.300000000     0.300000000
      0.400000000     0.300000000     0.300000000
      0.600000000     0.300000000     0.300000000
      0.800000000     0.300000000     0.300000000
      1.000000000     0.500000000     0.300000000
      0.200000000     0.500000000     0.300000000
      0.600000000     0.500000000     0.300000000
      0.800000000     0.500000000     0.300000000
      1.000000000     0.700000000     0.300000000
      0.200000000     0.700000000     0.300000000
      0.400000000     0.700000000     0.300000000
      0.800000000     0.700000000     0.300000000
      1.000000000     0.900000000     0.300000000
      0.200000000     0.900000000     0.300000000
      0.400000000     0.900000000     0.300000000
      0.800000000     0.900000000     0.300000000
      1.000000000     0.100000000     0.500000000
      0.200000000     0.100000000     0.500000000
      0.400000000     0.100000000     0.500000000
      0.600000000     0.100000000     0.500000000
      1.000000000     0.300000000     0.500000000
      0.200000000     0.300000000     0.500000000
      0.400000000     0.300000000     0.500000000
      0.600000000     0.300000000     0.500000000
      0.800000000     0.300000000     0.500000000
      1.000000000     0.500000000     0.500000000
      0.400000000     0.500000000     0.500000000
      0.600000000     0.500000000     0.500000000
      0.200000000     0.700000000     0.500000000
      0.600000000     0.700000000     0.500000000
      0.800000000     0.700000000     0.500000000
      1.000000000     0.900000000     0.500000000
      0.200000000     0.900000000     0.500000000
      0.400000000     0.900000000     0.500000000
      0.800000000     0.900000000     0.500000000
      1.000000000     0.100000000     0.700000000
      0.200000000     0.100000000     0.700000000
      0.600000000     0.100000000     0.700000000
      0.800000000     0.100000000     0.700000000
      0.200000000     0.300000000     0.700000000
      0.400000000     0.300000000     0.700000000
      0.600000000     0.300000000     0.700000000
      1.000000000     0.500000000     0.700000000
      0.200000000     0.500000000     0.700000000
      0.600000000     0.500000000     0.700000000
      1.000000000     0.700000000     0.700000000
      0.200000000     0.700000000     0.700000000
      0.400000000     0.700000000     0.700000000
      0.600000000     0.700000000     0.700000000
      0.800000000     0.700000000     0.700000000
      1.000000000     0.900000000     0.700000000
      0.200000000     0.900000000     0.700000000
      0.400000000     0.900000000     0.700000000
      0.600000000     0.900000000     0.700000000
      0.800000000     0.900000000     0.700000000
      0.600000000     0.100000000     0.900000000
      0.800000000     0.100000000     0.900000000
      1.000000000     0.300000000     0.900000000
      0.600000000     0.300000000     0.900000000
      1.000000000     0.500000000     0.900000000
      0.200000000     0.500000000     0.900000000
      0.400000000     0.500000000     0.900000000
      0.600000000     0.500000000     0.900000000
      0.800000000     0.500000000     0.900000000
      1.000000000     0.700000000     0.900000000
      0.400000000     0.700000000     0.900000000
      0.800000000     0.700000000     0.900000000
      1.000000000     0.900000000     0.900000000
      0.200000000     0.900000000     0.900000000
      0.400000000     0.900000000     0.900000000
      0.800000000     0.900000000     0.900000000
      0.300000000     1.000000000     0.100000000
      0.500000000     1.000000000     0.100000000
      0.700000000     1.000000000     0.100000000
      0.900000000     1.000000000     0.100000000
      0.300000000     0.200000000     0.100000000
      0.500000000     0.200000000     0.100000000
      0.700000000     0.200000000     0.100000000
      0.100000000     0.400000000     0.100000000
      0.300000000     0.400000000     0.100000000
      0.700000000     0.400000000     0.100000000
      0.900000000     0.400000000     0.100000000
      0.100000000     0.600000000     0.100000000
      0.300000000     0.600000000     0.100000000
      0.700000000     0.600000000     0.100000000
      0.100000000     0.800000000     0.100000000
      0.300000000     0.800000000     0.100000000
      0.700000000     0.800000000     0.100000000
      0.100000000     1.000000000     0.300000000
      0.700000000     1.000000000     0.300000000
      0.900000000     1.000000000     0.300000000
      0.100000000     0.200000000     0.300000000
      0.300000000     0.200000000     0.300000000
      0.500000000     0.200000000     0.300000000
      0.700000000     0.200000000     0.300000000
      0.900000000     0.200000000     0.300000000
      0.100000000     0.400000000     0.300000000
      0.300000000     0.400000000     0.300000000
      0.500000000     0.400000000     0.300000000
      0.700000000     0.400000000     0.300000000
      0.900000000     0.400000000     0.300000000
      0.100000000     0.600000000     0.300000000
      0.300000000     0.600000000     0.300000000
      0.500000000     0.600000000     0.300000000
      0.700000000     0.600000000     0.300000000
      0.900000000     0.600000000     0.300000000
      0.100000000     0.800000000     0.300000000
      0.300000000     0.800000000     0.300000000
      0.500000000     0.800000000     0.300000000
      0.700000000     0.800000000     0.300000000
      0.900000000     0.800000000     0.300000000
      0.500000000     1.000000000     0.500000000
      0.700000000     1.000000000     0.500000000
      0.100000000     0.200000000     0.500000000
      0.300000000     0.200000000     0.500000000
      0.500000000     0.200000000     0.500000000
      0.900000000     0.200000000     0.500000000
      0.300000000     0.400000000     0.500000000
      0.500000000     0.400000000     0.500000000
      0.700000000     0.400000000     0.500000000
      0.900000000     0.400000000     0.500000000
      0.900000000     0.600000000     0.500000000
      0.100000000     0.800000000     0.500000000
      0.300000000     0.800000000     0.500000000
      0.700000000     0.800000000     0.500000000
      0.100000000     1.000000000     0.700000000
      0.300000000     1.000000000     0.700000000
      0.700000000     1.000000000     0.700000000
      0.900000000     1.000000000     0.700000000
      0.300000000     0.200000000     0.700000000
      0.500000000     0.200000000     0.700000000
      0.700000000     0.200000000     0.700000000
      0.100000000     0.400000000     0.700000000
      0.300000000     0.400000000     0.700000000
      0.500000000     0.400000000     0.700000000
      0.700000000     0.400000000     0.700000000
      0.900000000     0.400000000     0.700000000
      0.100000000     0.600000000     0.700000000
      0.300000000     0.600000000     0.700000000
      0.500000000     0.600000000     0.700000000
      0.900000000     0.600000000     0.700000000
      0.100000000     0.800000000     0.700000000
      0.300000000     0.800000000     0.700000000
      0.700000000     0.800000000     0.700000000
      0.900000000     0.800000000     0.700000000
      0.100000000     1.000000000     0.900000000
      0.300000000     1.000000000     0.900000000
      0.500000000     1.000000000     0.900000000
      0.700000000     1.000000000     0.900000000
      0.900000000     1.000000000     0.900000000
      0.300000000     0.200000000     0.900000000
      0.500000000     0.200000000     0.900000000
      0.700000000     0.200000000     0.900000000
      0.100000000     0.400000000     0.900000000
      0.300000000     0.400000000     0.900000000
      0.500000000     0.400000000     0.900000000
      0.700000000     0.400000000     0.900000000
      0.500000000     0.600000000     0.900000000
      0.700000000     0.600000000     0.900000000
      0.300000000     0.800000000     0.900000000
      0.700000000     0.800000000     0.900000000
      0.900000000     0.800000000     0.900000000
      0.100000000     0.100000000     1.000000000
      0.700000000     0.100000000     1.000000000
      0.900000000     0.100000000     1.000000000
      0.100000000     0.300000000     1.000000000
      0.300000000     0.300000000     1.000000000
      0.500000000     0.300000000     1.000000000
      0.700000000     0.300000000     1.000000000
      0.900000000     0.300000000     1.000000000
      0.100000000     0.500000000     1.000000000
      0.300000000     0.500000000     1.000000000
      0.500000000     0.500000000     1.000000000
      0.100000000     0.700000000     1.000000000
      0.500000000     0.700000000     1.000000000
      0.900000000     0.700000000     1.000000000
      0.300000000     0.900000000     1.000000000
      0.500000000     0.900000000     1.000000000
      0.700000000     0.900000000     1.000000000
      0.900000000     0.900000000     1.000000000
      0.100000000     0.100000000     0.200000000
      0.300000000     0.100000000     0.200000000
      0.900000000     0.100000000     0.200000000
      0.100000000     0.300000000     0.200000000
      0.500000000     0.300000000     0.200000000
      0.700000000     0.300000000     0.200000000
      0.300000000     0.500000000     0.200000000
      0.500000000     0.500000000     0.200000000
      0.700000000     0.500000000     0.200000000
      0.100000000     0.700000000     0.200000000
      0.300000000     0.700000000     0.200000000
      0.300000000     0.900000000     0.200000000
      0.500000000     0.900000000     0.200000000
      0.900000000     0.900000000     0.200000000
      0.900000000     0.100000000     0.400000000
      0.100000000     0.300000000     0.400000000
      0.300000000     0.300000000     0.400000000
      0.500000000     0.300000000     0.400000000
      0.900000000     0.300000000     0.400000000
      0.300000000     0.500000000     0.400000000
      0.500000000     0.500000000     0.400000000
      0.700000000     0.500000000     0.400000000
      0.100000000     0.700000000     0.400000000
      0.300000000     0.700000000     0.400000000
      0.500000000     0.700000000     0.400000000
      0.700000000     0.700000000     0.400000000
      0.100000000     0.900000000     0.400000000
      0.300000000     0.900000000     0.400000000
      0.100000000     0.100000000     0.600000000
      0.500000000     0.100000000     0.600000000
      0.700000000     0.100000000     0.600000000
      0.900000000     0.100000000     0.600000000
      0.100000000     0.300000000     0.600000000
      0.300000000     0.300000000     0.600000000
      0.700000000     0.300000000     0.600000000
      0.700000000     0.500000000     0.600000000
      0.900000000     0.500000000     0.600000000
      0.100000000     0.700000000     0.600000000
      0.300000000     0.700000000     0.600000000
      0.500000000     0.700000000     0.600000000
      0.700000000     0.700000000     0.600000000
      0.900000000     0.700000000     0.600000000
      0.100000000     0.900000000     0.600000000
      0.300000000     0.900000000     0.600000000
      0.500000000     0.900000000     0.600000000
      0.900000000     0.900000000     0.600000000
      0.300000000     0.100000000     0.800000000
      0.500000000     0.100000000     0.800000000
      0.900000000     0.100000000     0.800000000
      0.100000000     0.300000000     0.800000000
      0.300000000     0.300000000     0.800000000
      0.700000000     0.300000000     0.800000000
      0.900000000     0.300000000     0.800000000
      0.300000000     0.500000000     0.800000000
      0.500000000     0.500000000     0.800000000
      0.900000000     0.500000000     0.800000000
      0.100000000     0.700000000     0.800000000
      0.300000000     0.700000000     0.800000000
      0.500000000     0.700000000     0.800000000
      0.700000000     0.700000000     0.800000000
      0.300000000     0.900000000     0.800000000
      0.500000000     0.900000000     0.800000000
      0.700000000     0.900000000     0.800000000
      0.900000000     0.900000000     0.800000000
      1.000000000     0.600000000     1.000000000
      0.200000000     0.200000000     0.200000000
      0.400000000     0.400000000     0.200000000
      0.800000000     0.400000000     0.200000000
      0.600000000     0.400000000     0.400000000
      0.400000000     0.800000000     0.400000000
      1.000000000     0.400000000     0.600000000
      0.800000000     0.600000000     0.600000000
      0.200000000     0.800000000     0.600000000
      0.200000000     0.400000000     0.800000000
      0.400000000     0.100000000     0.100000000
      1.000000000     0.500000000     0.100000000
      0.600000000     0.700000000     0.100000000
      1.000000000     0.100000000     0.300000000
      0.200000000     0.100000000     0.300000000
      0.400000000     0.500000000     0.300000000
      0.600000000     0.900000000     0.300000000
      0.800000000     0.500000000     0.500000000
      0.600000000     0.900000000     0.500000000
      0.800000000     0.300000000     0.700000000
      0.800000000     0.500000000     0.700000000
      0.400000000     0.300000000     0.900000000
      0.800000000     0.300000000     0.900000000
      0.100000000     1.000000000     0.100000000
      0.900000000     0.200000000     0.100000000
      0.500000000     0.400000000     0.100000000
      0.500000000     0.600000000     0.100000000
      0.500000000     0.800000000     0.100000000
      0.900000000     0.800000000     0.100000000
      0.500000000     1.000000000     0.300000000
      0.100000000     0.400000000     0.500000000
      0.300000000     0.600000000     0.500000000
      0.500000000     1.000000000     0.700000000
      0.700000000     0.600000000     0.700000000
      0.900000000     0.200000000     0.900000000
      0.900000000     0.400000000     0.900000000
      0.100000000     0.600000000     0.900000000
      0.300000000     0.600000000     0.900000000
      0.700000000     0.500000000     1.000000000
      0.900000000     0.300000000     0.200000000
      0.900000000     0.500000000     0.200000000
      0.500000000     0.700000000     0.200000000
      0.900000000     0.700000000     0.200000000
      0.700000000     0.900000000     0.200000000
      0.300000000     0.100000000     0.400000000
      0.700000000     0.300000000     0.400000000
      0.500000000     0.300000000     0.600000000
      0.100000000     0.500000000     0.600000000
      0.300000000     0.500000000     0.600000000
      0.700000000     0.100000000     0.800000000
