11×11×11 Sample_027 Score_0.8895 Seed_1781198269
1.0
    38.226604525     0.000000000     0.000000000
     0.000000000    38.226604525     0.000000000
     0.000000000     0.000000000    38.226604525
Al B C Cr Fe Mo Ni
106 106 106 447 192 532 3835
Direct
     0.045454545     0.409090909     0.454545455
     0.045454545     0.454545455     0.136363636
     0.000000000     0.545454545     0.363636364
     0.045454545     0.545454545     0.681818182
     0.045454545     0.727272727     0.045454545
     0.000000000     0.727272727     0.818181818
     0.000000000     0.909090909     0.181818182
     0.045454545     0.909090909     0.409090909
     0.136363636     0.045454545     0.181818182
     0.136363636     0.045454545     0.272727273
     0.136363636     0.090909091     0.863636364
     0.090909091     0.181818182     0.909090909
     0.136363636     0.363636364     0.318181818
     0.136363636     0.500000000     0.909090909
     0.090909091     0.545454545     0.909090909
     0.136363636     0.636363636     0.045454545
     0.136363636     0.636363636     0.136363636
     0.136363636     0.772727273     0.090909091
     0.136363636     0.727272727     0.500000000
     0.090909091     0.909090909     0.363636364
     0.090909091     0.909090909     0.727272727
     0.090909091     0.909090909     0.818181818
     0.181818182     0.045454545     0.227272727
     0.181818182     0.000000000     0.363636364
     0.227272727     0.318181818     0.272727273
     0.227272727     0.636363636     0.409090909
     0.227272727     0.818181818     0.045454545
     0.181818182     0.818181818     0.636363636
     0.227272727     0.909090909     0.772727273
     0.181818182     0.954545455     0.954545455
     0.318181818     0.000000000     0.772727273
     0.272727273     0.090909091     0.454545455
     0.272727273     0.136363636     0.500000000
     0.272727273     0.090909091     0.545454545
     0.318181818     0.227272727     0.636363636
     0.318181818     0.272727273     0.590909091
     0.272727273     0.318181818     0.772727273
     0.272727273     0.409090909     0.318181818
     0.318181818     0.363636364     0.318181818
     0.318181818     0.500000000     0.818181818
     0.318181818     0.590909091     0.545454545
     0.318181818     0.636363636     0.227272727
     0.318181818     0.863636364     0.000000000
     0.409090909     0.636363636     0.500000000
     0.363636364     0.681818182     0.954545455
     0.409090909     0.727272727     0.681818182
     0.409090909     0.772727273     0.636363636
     0.409090909     0.954545455     0.545454545
     0.454545455     0.181818182     0.636363636
     0.454545455     0.318181818     0.227272727
     0.454545455     0.363636364     0.818181818
     0.454545455     0.454545455     0.090909091
     0.454545455     0.590909091     0.136363636
     0.500000000     0.590909091     0.818181818
     0.500000000     0.772727273     0.090909091
     0.500000000     0.727272727     0.500000000
     0.500000000     0.863636364     0.363636364
     0.545454545     0.090909091     0.727272727
     0.590909091     0.181818182     0.045454545
     0.545454545     0.227272727     0.409090909
     0.590909091     0.227272727     0.363636364
     0.590909091     0.227272727     0.454545455
     0.590909091     0.500000000     0.363636364
     0.590909091     0.454545455     0.590909091
     0.545454545     0.545454545     0.090909091
     0.590909091     0.545454545     0.681818182
     0.590909091     0.590909091     0.636363636
     0.545454545     0.727272727     0.454545455
     0.545454545     0.818181818     0.272727273
     0.545454545     0.954545455     0.136363636
     0.681818182     0.181818182     0.590909091
     0.636363636     0.636363636     0.000000000
     0.636363636     0.681818182     0.318181818
     0.636363636     0.636363636     0.454545455
     0.636363636     0.909090909     0.727272727
     0.772727273     0.000000000     0.318181818
     0.772727273     0.045454545     0.727272727
     0.772727273     0.227272727     0.181818182
     0.772727273     0.227272727     0.818181818
     0.772727273     0.318181818     0.727272727
     0.727272727     0.500000000     0.954545455
     0.727272727     0.545454545     0.818181818
     0.727272727     0.681818182     0.227272727
     0.727272727     0.818181818     0.181818182
     0.727272727     0.818181818     0.727272727
     0.863636364     0.090909091     0.136363636
     0.818181818     0.090909091     0.818181818
     0.863636364     0.227272727     0.090909091
     0.863636364     0.409090909     0.181818182
     0.818181818     0.409090909     0.318181818
     0.863636364     0.363636364     0.863636364
     0.863636364     0.454545455     0.772727273
     0.863636364     0.500000000     0.909090909
     0.818181818     0.636363636     0.000000000
     0.818181818     0.772727273     0.045454545
     0.818181818     0.909090909     0.454545455
     0.818181818     0.954545455     0.681818182
     0.909090909     0.227272727     0.681818182
     0.909090909     0.363636364     0.454545455
     0.954545455     0.409090909     0.636363636
     0.954545455     0.500000000     0.454545455
     0.909090909     0.545454545     0.000000000
     0.954545455     0.590909091     0.272727273
     0.909090909     0.727272727     0.545454545
     0.954545455     0.818181818     0.863636364
     0.909090909     0.954545455     0.954545455
     0.000000000     0.000000000     0.454545455
     0.000000000     0.227272727     0.590909091
     0.045454545     0.318181818     0.181818182
     0.000000000     0.590909091     0.954545455
     0.000000000     0.636363636     0.000000000
     0.045454545     0.772727273     0.272727273
     0.000000000     0.863636364     0.227272727
     0.045454545     0.863636364     0.909090909
     0.000000000     0.909090909     0.363636364
     0.090909091     0.000000000     0.545454545
     0.090909091     0.272727273     0.090909091
     0.136363636     0.409090909     0.363636364
     0.090909091     0.545454545     0.272727273
     0.136363636     0.636363636     0.590909091
     0.136363636     0.772727273     0.454545455
     0.136363636     0.727272727     0.863636364
     0.136363636     0.818181818     0.409090909
     0.181818182     0.045454545     0.136363636
     0.181818182     0.227272727     0.045454545
     0.181818182     0.272727273     0.545454545
     0.227272727     0.318181818     0.818181818
     0.181818182     0.363636364     0.363636364
     0.227272727     0.500000000     0.000000000
     0.227272727     0.454545455     0.227272727
     0.227272727     0.545454545     0.045454545
     0.227272727     0.545454545     0.136363636
     0.227272727     0.681818182     0.909090909
     0.227272727     0.727272727     0.863636364
     0.181818182     0.954545455     0.318181818
     0.181818182     0.909090909     0.454545455
     0.227272727     0.954545455     0.636363636
     0.181818182     0.954545455     0.772727273
     0.318181818     0.318181818     0.181818182
     0.318181818     0.772727273     0.090909091
     0.318181818     0.863636364     0.818181818
     0.272727273     0.909090909     0.000000000
     0.272727273     0.909090909     0.636363636
     0.363636364     0.045454545     0.772727273
     0.363636364     0.045454545     0.863636364
     0.409090909     0.227272727     0.181818182
     0.409090909     0.500000000     0.818181818
     0.363636364     0.681818182     0.136363636
     0.363636364     0.772727273     0.500000000
     0.363636364     0.772727273     0.681818182
     0.363636364     0.818181818     0.181818182
     0.363636364     0.954545455     0.409090909
     0.409090909     0.909090909     0.500000000
     0.500000000     0.045454545     0.909090909
     0.500000000     0.227272727     0.181818182
     0.454545455     0.318181818     0.500000000
     0.500000000     0.409090909     0.090909091
     0.500000000     0.409090909     0.363636364
     0.500000000     0.590909091     0.727272727
     0.454545455     0.545454545     0.818181818
     0.454545455     0.636363636     0.181818182
     0.500000000     0.681818182     0.454545455
     0.500000000     0.772727273     0.272727273
     0.454545455     0.772727273     0.409090909
     0.454545455     0.727272727     0.454545455
     0.454545455     0.727272727     0.818181818
     0.454545455     0.863636364     0.136363636
     0.500000000     0.954545455     0.272727273
     0.454545455     0.909090909     0.727272727
     0.454545455     0.909090909     0.818181818
     0.590909091     0.136363636     0.909090909
     0.545454545     0.363636364     0.818181818
     0.545454545     0.500000000     0.227272727
     0.590909091     0.636363636     0.227272727
     0.545454545     0.636363636     0.272727273
     0.590909091     0.818181818     0.136363636
     0.636363636     0.090909091     0.090909091
     0.636363636     0.090909091     0.636363636
     0.636363636     0.181818182     0.090909091
     0.636363636     0.181818182     0.363636364
     0.636363636     0.227272727     0.500000000
     0.681818182     0.227272727     0.818181818
     0.681818182     0.363636364     0.045454545
     0.681818182     0.590909091     0.090909091
     0.636363636     0.545454545     0.181818182
     0.681818182     0.636363636     0.136363636
     0.636363636     0.772727273     0.409090909
     0.727272727     0.045454545     0.954545455
     0.727272727     0.227272727     0.136363636
     0.772727273     0.409090909     0.454545455
     0.772727273     0.545454545     0.772727273
     0.772727273     0.818181818     0.500000000
     0.727272727     0.954545455     0.590909091
     0.818181818     0.045454545     0.590909091
     0.818181818     0.045454545     0.772727273
     0.863636364     0.227272727     0.454545455
     0.818181818     0.318181818     0.318181818
     0.818181818     0.272727273     0.727272727
     0.818181818     0.363636364     0.181818182
     0.863636364     0.772727273     0.545454545
     0.863636364     0.727272727     0.863636364
     0.863636364     0.818181818     0.409090909
     0.954545455     0.000000000     0.590909091
     0.909090909     0.136363636     0.136363636
     0.909090909     0.227272727     0.954545455
     0.954545455     0.272727273     0.590909091
     0.909090909     0.500000000     0.681818182
     0.954545455     0.590909091     0.363636364
     0.909090909     0.590909091     0.500000000
     0.954545455     0.681818182     0.181818182
     0.909090909     0.818181818     0.727272727
     0.954545455     0.954545455     0.909090909
     0.045454545     0.318181818     0.545454545
     0.045454545     0.272727273     0.681818182
     0.045454545     0.727272727     0.136363636
     0.045454545     0.772727273     0.363636364
     0.090909091     0.136363636     0.954545455
     0.136363636     0.181818182     0.045454545
     0.136363636     0.363636364     0.590909091
     0.136363636     0.500000000     0.454545455
     0.136363636     0.590909091     0.909090909
     0.136363636     0.636363636     0.227272727
     0.136363636     0.772727273     0.545454545
     0.227272727     0.045454545     0.545454545
     0.181818182     0.090909091     0.727272727
     0.227272727     0.409090909     0.181818182
     0.181818182     0.409090909     0.409090909
     0.227272727     0.409090909     0.727272727
     0.181818182     0.500000000     0.045454545
     0.181818182     0.454545455     0.454545455
     0.181818182     0.636363636     0.545454545
     0.181818182     0.818181818     0.181818182
     0.181818182     0.818181818     0.272727273
     0.181818182     0.954545455     0.045454545
     0.272727273     0.045454545     0.409090909
     0.318181818     0.090909091     0.681818182
     0.272727273     0.318181818     0.863636364
     0.318181818     0.409090909     0.363636364
     0.318181818     0.363636364     0.954545455
     0.318181818     0.545454545     0.863636364
     0.318181818     0.545454545     0.954545455
     0.318181818     0.772727273     0.727272727
     0.272727273     0.772727273     0.954545455
     0.318181818     0.818181818     0.772727273
     0.318181818     0.909090909     0.681818182
     0.272727273     0.954545455     0.863636364
     0.272727273     0.909090909     0.909090909
     0.409090909     0.045454545     0.363636364
     0.409090909     0.000000000     0.772727273
     0.363636364     0.136363636     0.954545455
     0.363636364     0.681818182     0.772727273
     0.363636364     0.772727273     0.045454545
     0.409090909     0.772727273     0.090909091
     0.363636364     0.818181818     0.545454545
     0.409090909     0.818181818     0.590909091
     0.500000000     0.090909091     0.045454545
     0.500000000     0.181818182     0.045454545
     0.454545455     0.272727273     0.636363636
     0.454545455     0.272727273     0.909090909
     0.500000000     0.272727273     0.954545455
     0.454545455     0.363636364     0.272727273
     0.454545455     0.363636364     0.545454545
     0.500000000     0.409090909     0.636363636
     0.500000000     0.500000000     0.909090909
     0.500000000     0.590909091     0.000000000
     0.454545455     0.590909091     0.590909091
     0.454545455     0.636363636     0.272727273
     0.500000000     0.772727273     0.727272727
     0.454545455     0.818181818     0.818181818
     0.454545455     0.909090909     0.363636364
     0.545454545     0.000000000     0.909090909
     0.545454545     0.090909091     0.090909091
     0.590909091     0.227272727     0.000000000
     0.545454545     0.409090909     0.136363636
     0.590909091     0.454545455     0.227272727
     0.545454545     0.863636364     0.500000000
     0.590909091     0.818181818     0.954545455
     0.590909091     0.863636364     0.909090909
     0.681818182     0.045454545     0.000000000
     0.681818182     0.136363636     0.090909091
     0.681818182     0.227272727     0.363636364
     0.636363636     0.454545455     0.363636364
     0.636363636     0.454545455     0.727272727
     0.636363636     0.590909091     0.318181818
     0.636363636     0.590909091     0.500000000
     0.681818182     0.545454545     0.590909091
     0.681818182     0.636363636     0.227272727
     0.636363636     0.681818182     0.772727273
     0.636363636     0.772727273     0.045454545
     0.636363636     0.772727273     0.863636364
     0.636363636     0.909090909     0.090909091
     0.636363636     0.954545455     0.500000000
     0.772727273     0.045454545     0.545454545
     0.772727273     0.090909091     0.681818182
     0.772727273     0.181818182     0.136363636
     0.727272727     0.363636364     0.545454545
     0.772727273     0.590909091     0.636363636
     0.772727273     0.636363636     0.318181818
     0.772727273     0.727272727     0.500000000
     0.818181818     0.000000000     0.090909091
     0.818181818     0.045454545     0.954545455
     0.818181818     0.136363636     0.954545455
     0.818181818     0.181818182     0.090909091
     0.863636364     0.181818182     0.227272727
     0.863636364     0.272727273     0.227272727
     0.818181818     0.409090909     0.409090909
     0.818181818     0.363636364     0.454545455
     0.818181818     0.636363636     0.545454545
     0.818181818     0.863636364     0.045454545
     0.909090909     0.000000000     0.636363636
     0.954545455     0.136363636     0.727272727
     0.954545455     0.272727273     0.318181818
     0.954545455     0.409090909     0.272727273
     0.954545455     0.454545455     0.045454545
     0.954545455     0.636363636     0.409090909
     0.954545455     0.727272727     0.409090909
     0.954545455     0.863636364     0.000000000
     0.909090909     0.863636364     0.409090909
     0.000000000     0.045454545     0.045454545
     0.000000000     0.045454545     0.136363636
     0.045454545     0.045454545     0.818181818
     0.000000000     0.090909091     0.000000000
     0.000000000     0.090909091     0.090909091
     0.045454545     0.090909091     0.136363636
     0.000000000     0.136363636     0.590909091
     0.000000000     0.227272727     0.227272727
     0.045454545     0.181818182     0.227272727
     0.000000000     0.181818182     0.272727273
     0.045454545     0.227272727     0.272727273
     0.045454545     0.227272727     0.454545455
     0.000000000     0.227272727     0.863636364
     0.000000000     0.272727273     0.000000000
     0.000000000     0.272727273     0.363636364
     0.045454545     0.272727273     0.500000000
     0.045454545     0.272727273     0.590909091
     0.045454545     0.318181818     0.818181818
     0.045454545     0.363636364     0.318181818
     0.000000000     0.409090909     0.590909091
     0.045454545     0.409090909     0.818181818
     0.045454545     0.500000000     0.000000000
     0.000000000     0.500000000     0.318181818
     0.000000000     0.590909091     0.136363636
     0.045454545     0.590909091     0.454545455
     0.045454545     0.636363636     0.045454545
     0.045454545     0.681818182     0.727272727
     0.000000000     0.681818182     0.863636364
     0.045454545     0.772727273     0.000000000
     0.045454545     0.727272727     0.318181818
     0.000000000     0.772727273     0.590909091
     0.045454545     0.772727273     0.545454545
     0.000000000     0.727272727     0.909090909
     0.000000000     0.863636364     0.318181818
     0.045454545     0.818181818     0.772727273
     0.045454545     0.954545455     0.363636364
     0.045454545     0.909090909     0.954545455
     0.045454545     0.954545455     0.909090909
     0.090909091     0.045454545     0.045454545
     0.136363636     0.000000000     0.409090909
     0.136363636     0.090909091     0.136363636
     0.136363636     0.090909091     0.772727273
     0.136363636     0.136363636     0.727272727
     0.090909091     0.181818182     0.181818182
     0.136363636     0.272727273     0.136363636
     0.136363636     0.272727273     0.227272727
     0.136363636     0.272727273     0.409090909
     0.136363636     0.272727273     0.681818182
     0.136363636     0.318181818     0.636363636
     0.136363636     0.409090909     0.090909091
     0.090909091     0.409090909     0.409090909
     0.136363636     0.363636364     0.409090909
     0.136363636     0.363636364     0.500000000
     0.090909091     0.363636364     0.545454545
     0.090909091     0.409090909     0.772727273
     0.090909091     0.500000000     0.500000000
     0.136363636     0.500000000     0.545454545
     0.090909091     0.545454545     0.454545455
     0.136363636     0.590909091     0.636363636
     0.136363636     0.681818182     0.090909091
     0.090909091     0.636363636     0.181818182
     0.090909091     0.636363636     0.636363636
     0.090909091     0.681818182     0.772727273
     0.136363636     0.636363636     0.772727273
     0.136363636     0.636363636     0.863636364
     0.136363636     0.636363636     0.954545455
     0.090909091     0.727272727     0.363636364
     0.090909091     0.727272727     0.454545455
     0.090909091     0.727272727     0.727272727
     0.090909091     0.863636364     0.136363636
     0.136363636     0.863636364     0.272727273
     0.136363636     0.818181818     0.500000000
     0.136363636     0.818181818     0.590909091
     0.090909091     0.909090909     0.000000000
     0.090909091     0.909090909     0.181818182
     0.090909091     0.909090909     0.454545455
     0.136363636     0.954545455     0.454545455
     0.136363636     0.909090909     0.590909091
     0.181818182     0.000000000     0.272727273
     0.227272727     0.000000000     0.500000000
     0.181818182     0.090909091     0.454545455
     0.227272727     0.090909091     0.772727273
     0.227272727     0.227272727     0.181818182
     0.227272727     0.181818182     0.318181818
     0.181818182     0.227272727     0.590909091
     0.181818182     0.318181818     0.409090909
     0.181818182     0.318181818     0.590909091
     0.227272727     0.318181818     0.909090909
     0.181818182     0.363636364     0.000000000
     0.227272727     0.409090909     0.000000000
     0.227272727     0.409090909     0.090909091
     0.181818182     0.363636364     0.272727273
     0.227272727     0.363636364     0.500000000
     0.181818182     0.363636364     0.636363636
     0.181818182     0.363636364     0.727272727
     0.227272727     0.500000000     0.363636364
     0.227272727     0.454545455     0.590909091
     0.181818182     0.454545455     0.636363636
     0.181818182     0.500000000     0.681818182
     0.227272727     0.500000000     0.636363636
     0.181818182     0.454545455     0.727272727
     0.227272727     0.500000000     0.909090909
     0.181818182     0.545454545     0.272727273
     0.227272727     0.545454545     0.409090909
     0.181818182     0.590909091     0.863636364
     0.227272727     0.636363636     0.136363636
     0.181818182     0.636363636     0.272727273
     0.181818182     0.727272727     0.272727273
     0.181818182     0.727272727     0.454545455
     0.227272727     0.727272727     0.500000000
     0.181818182     0.772727273     0.772727273
     0.227272727     0.772727273     0.818181818
     0.181818182     0.772727273     0.954545455
     0.181818182     0.863636364     0.136363636
     0.227272727     0.818181818     0.590909091
     0.181818182     0.909090909     0.181818182
     0.227272727     0.909090909     0.318181818
     0.227272727     0.909090909     0.500000000
     0.181818182     0.954545455     0.863636364
     0.272727273     0.000000000     0.000000000
     0.272727273     0.045454545     0.045454545
     0.272727273     0.045454545     0.227272727
     0.272727273     0.045454545     0.590909091
     0.318181818     0.136363636     0.181818182
     0.272727273     0.136363636     0.409090909
     0.318181818     0.090909091     0.500000000
     0.318181818     0.227272727     0.090909091
     0.318181818     0.181818182     0.681818182
     0.318181818     0.227272727     0.909090909
     0.272727273     0.318181818     0.318181818
     0.318181818     0.318181818     0.363636364
     0.318181818     0.318181818     0.636363636
     0.272727273     0.272727273     0.818181818
     0.318181818     0.409090909     0.090909091
     0.272727273     0.409090909     0.409090909
     0.272727273     0.409090909     0.500000000
     0.272727273     0.363636364     0.727272727
     0.318181818     0.454545455     0.045454545
     0.318181818     0.500000000     0.181818182
     0.272727273     0.500000000     0.590909091
     0.318181818     0.500000000     0.636363636
     0.318181818     0.454545455     0.863636364
     0.318181818     0.545454545     0.045454545
     0.318181818     0.545454545     0.227272727
     0.318181818     0.545454545     0.500000000
     0.272727273     0.727272727     0.000000000
     0.318181818     0.727272727     0.045454545
     0.318181818     0.772727273     0.000000000
     0.318181818     0.818181818     0.409090909
     0.272727273     0.909090909     0.181818182
     0.318181818     0.954545455     0.454545455
     0.272727273     0.954545455     0.772727273
     0.318181818     0.909090909     0.863636364
     0.318181818     0.909090909     0.954545455
     0.409090909     0.045454545     0.272727273
     0.363636364     0.090909091     0.272727273
     0.363636364     0.090909091     0.818181818
     0.409090909     0.227272727     0.000000000
     0.409090909     0.227272727     0.363636364
     0.409090909     0.181818182     0.590909091
     0.409090909     0.227272727     0.727272727
     0.363636364     0.318181818     0.409090909
     0.363636364     0.318181818     0.590909091
     0.409090909     0.272727273     0.590909091
     0.363636364     0.363636364     0.090909091
     0.409090909     0.363636364     0.227272727
     0.409090909     0.409090909     0.181818182
     0.363636364     0.363636364     0.636363636
     0.409090909     0.409090909     0.636363636
     0.409090909     0.363636364     0.863636364
     0.409090909     0.409090909     0.909090909
     0.363636364     0.500000000     0.136363636
     0.363636364     0.454545455     0.181818182
     0.363636364     0.454545455     0.363636364
     0.363636364     0.500000000     0.500000000
     0.363636364     0.500000000     0.590909091
     0.363636364     0.454545455     0.909090909
     0.363636364     0.545454545     0.000000000
     0.363636364     0.545454545     0.272727273
     0.363636364     0.545454545     0.363636364
     0.409090909     0.590909091     0.545454545
     0.363636364     0.636363636     0.181818182
     0.363636364     0.681818182     0.318181818
     0.409090909     0.681818182     0.727272727
     0.363636364     0.636363636     0.818181818
     0.409090909     0.681818182     0.818181818
     0.363636364     0.727272727     0.181818182
     0.409090909     0.772727273     0.272727273
     0.363636364     0.772727273     0.772727273
     0.409090909     0.772727273     0.818181818
     0.363636364     0.727272727     0.909090909
     0.409090909     0.818181818     0.227272727
     0.409090909     0.863636364     0.272727273
     0.363636364     0.863636364     0.409090909
     0.409090909     0.818181818     0.500000000
     0.409090909     0.954545455     0.272727273
     0.454545455     0.136363636     0.136363636
     0.454545455     0.136363636     0.318181818
     0.500000000     0.136363636     0.363636364
     0.454545455     0.136363636     0.500000000
     0.500000000     0.227272727     0.000000000
     0.454545455     0.227272727     0.318181818
     0.500000000     0.227272727     0.909090909
     0.500000000     0.272727273     0.318181818
     0.454545455     0.272727273     0.818181818
     0.500000000     0.363636364     0.590909091
     0.500000000     0.454545455     0.136363636
     0.500000000     0.500000000     0.545454545
     0.500000000     0.500000000     0.636363636
     0.454545455     0.500000000     0.772727273
     0.500000000     0.500000000     0.818181818
     0.500000000     0.545454545     0.409090909
     0.500000000     0.636363636     0.227272727
     0.454545455     0.681818182     0.409090909
     0.454545455     0.681818182     0.500000000
     0.500000000     0.636363636     0.954545455
     0.454545455     0.727272727     0.272727273
     0.454545455     0.863636364     0.045454545
     0.500000000     0.863636364     0.454545455
     0.454545455     0.863636364     0.681818182
     0.500000000     0.863636364     0.818181818
     0.500000000     0.909090909     0.136363636
     0.500000000     0.909090909     0.409090909
     0.454545455     0.954545455     0.590909091
     0.454545455     0.909090909     0.636363636
     0.500000000     0.954545455     0.818181818
     0.590909091     0.045454545     0.272727273
     0.590909091     0.000000000     0.590909091
     0.545454545     0.045454545     0.863636364
     0.590909091     0.000000000     0.954545455
     0.590909091     0.090909091     0.136363636
     0.590909091     0.090909091     0.318181818
     0.545454545     0.090909091     0.454545455
     0.590909091     0.136363636     0.454545455
     0.590909091     0.090909091     0.590909091
     0.545454545     0.136363636     0.681818182
     0.590909091     0.181818182     0.227272727
     0.545454545     0.181818182     0.545454545
     0.590909091     0.227272727     0.727272727
     0.545454545     0.272727273     0.363636364
     0.590909091     0.363636364     0.409090909
     0.545454545     0.363636364     0.636363636
     0.545454545     0.454545455     0.181818182
     0.545454545     0.500000000     0.500000000
     0.545454545     0.500000000     0.590909091
     0.590909091     0.454545455     0.954545455
     0.545454545     0.545454545     0.181818182
     0.590909091     0.545454545     0.318181818
     0.590909091     0.545454545     0.409090909
     0.590909091     0.545454545     0.500000000
     0.590909091     0.590909091     0.909090909
     0.590909091     0.636363636     0.045454545
     0.590909091     0.636363636     0.590909091
     0.590909091     0.636363636     0.772727273
     0.545454545     0.636363636     0.818181818
     0.590909091     0.681818182     0.818181818
     0.545454545     0.727272727     0.000000000
     0.545454545     0.727272727     0.272727273
     0.590909091     0.727272727     0.318181818
     0.590909091     0.727272727     0.500000000
     0.590909091     0.727272727     0.590909091
     0.590909091     0.727272727     0.954545455
     0.545454545     0.818181818     0.000000000
     0.545454545     0.863636364     0.318181818
     0.590909091     0.818181818     0.863636364
     0.590909091     0.909090909     0.227272727
     0.545454545     0.954545455     0.590909091
     0.590909091     0.909090909     0.590909091
     0.590909091     0.909090909     0.681818182
     0.545454545     0.909090909     0.818181818
     0.681818182     0.000000000     0.045454545
     0.681818182     0.000000000     0.500000000
     0.681818182     0.090909091     0.500000000
     0.681818182     0.136363636     0.454545455
     0.681818182     0.090909091     0.681818182
     0.636363636     0.090909091     0.818181818
     0.636363636     0.136363636     0.954545455
     0.636363636     0.227272727     0.681818182
     0.681818182     0.227272727     0.636363636
     0.681818182     0.318181818     0.000000000
     0.681818182     0.318181818     0.090909091
     0.681818182     0.272727273     0.227272727
     0.636363636     0.318181818     0.954545455
     0.681818182     0.409090909     0.181818182
     0.681818182     0.500000000     0.000000000
     0.636363636     0.500000000     0.409090909
     0.636363636     0.500000000     0.590909091
     0.681818182     0.500000000     0.545454545
     0.681818182     0.500000000     0.636363636
     0.636363636     0.500000000     0.772727273
     0.636363636     0.454545455     0.909090909
     0.636363636     0.590909091     0.227272727
     0.681818182     0.590909091     0.181818182
     0.636363636     0.545454545     0.545454545
     0.636363636     0.590909091     0.590909091
     0.636363636     0.590909091     0.681818182
     0.636363636     0.545454545     0.727272727
     0.636363636     0.545454545     0.909090909
     0.636363636     0.681818182     0.045454545
     0.636363636     0.681818182     0.136363636
     0.636363636     0.681818182     0.227272727
     0.681818182     0.636363636     0.409090909
     0.681818182     0.636363636     0.681818182
     0.681818182     0.636363636     0.863636364
     0.636363636     0.727272727     0.454545455
     0.636363636     0.772727273     0.772727273
     0.681818182     0.772727273     0.727272727
     0.681818182     0.863636364     0.363636364
     0.636363636     0.818181818     0.727272727
     0.681818182     0.818181818     0.863636364
     0.681818182     0.909090909     0.136363636
     0.681818182     0.954545455     0.090909091
     0.636363636     0.909090909     0.636363636
     0.636363636     0.954545455     0.954545455
     0.772727273     0.000000000     0.045454545
     0.727272727     0.045454545     0.409090909
     0.772727273     0.045454545     0.363636364
     0.772727273     0.090909091     0.227272727
     0.772727273     0.136363636     0.181818182
     0.772727273     0.090909091     0.590909091
     0.727272727     0.090909091     0.818181818
     0.727272727     0.136363636     0.863636364
     0.772727273     0.090909091     0.863636364
     0.727272727     0.181818182     0.090909091
     0.772727273     0.227272727     0.545454545
     0.727272727     0.181818182     0.909090909
     0.772727273     0.318181818     0.000000000
     0.772727273     0.318181818     0.181818182
     0.772727273     0.318181818     0.272727273
     0.727272727     0.363636364     0.000000000
     0.772727273     0.409090909     0.272727273
     0.727272727     0.409090909     0.590909091
     0.727272727     0.363636364     0.636363636
     0.727272727     0.409090909     0.772727273
     0.772727273     0.409090909     0.909090909
     0.772727273     0.454545455     0.318181818
     0.772727273     0.590909091     0.272727273
     0.727272727     0.590909091     0.590909091
     0.727272727     0.545454545     0.636363636
     0.772727273     0.590909091     0.727272727
     0.727272727     0.681818182     0.136363636
     0.727272727     0.636363636     0.181818182
     0.772727273     0.681818182     0.454545455
     0.727272727     0.727272727     0.000000000
     0.727272727     0.772727273     0.136363636
     0.772727273     0.772727273     0.272727273
     0.727272727     0.727272727     0.363636364
     0.727272727     0.772727273     0.409090909
     0.772727273     0.772727273     0.363636364
     0.772727273     0.772727273     0.545454545
     0.772727273     0.727272727     0.772727273
     0.772727273     0.772727273     0.818181818
     0.772727273     0.818181818     0.136363636
     0.772727273     0.863636364     0.818181818
     0.727272727     0.909090909     0.000000000
     0.772727273     0.909090909     0.045454545
     0.772727273     0.909090909     0.136363636
     0.727272727     0.954545455     0.227272727
     0.727272727     0.954545455     0.318181818
     0.727272727     0.909090909     0.545454545
     0.772727273     0.954545455     0.909090909
     0.818181818     0.045454545     0.136363636
     0.863636364     0.000000000     0.772727273
     0.863636364     0.045454545     0.909090909
     0.818181818     0.090909091     0.090909091
     0.818181818     0.136363636     0.136363636
     0.863636364     0.090909091     0.318181818
     0.863636364     0.136363636     0.545454545
     0.818181818     0.136363636     0.772727273
     0.863636364     0.181818182     0.045454545
     0.818181818     0.181818182     0.272727273
     0.818181818     0.227272727     0.409090909
     0.818181818     0.181818182     0.454545455
     0.863636364     0.227272727     0.545454545
     0.818181818     0.227272727     0.863636364
     0.863636364     0.227272727     0.909090909
     0.818181818     0.272727273     0.000000000
     0.863636364     0.272727273     0.045454545
     0.863636364     0.272727273     0.409090909
     0.863636364     0.318181818     0.454545455
     0.863636364     0.272727273     0.681818182
     0.863636364     0.318181818     0.727272727
     0.818181818     0.272727273     0.818181818
     0.818181818     0.363636364     0.363636364
     0.818181818     0.363636364     0.545454545
     0.818181818     0.409090909     0.681818182
     0.818181818     0.363636364     0.727272727
     0.818181818     0.500000000     0.045454545
     0.863636364     0.500000000     0.000000000
     0.818181818     0.500000000     0.136363636
     0.863636364     0.454545455     0.590909091
     0.863636364     0.590909091     0.000000000
     0.818181818     0.545454545     0.090909091
     0.863636364     0.545454545     0.136363636
     0.863636364     0.545454545     0.500000000
     0.863636364     0.636363636     0.409090909
     0.863636364     0.727272727     0.772727273
     0.863636364     0.772727273     0.909090909
     0.818181818     0.818181818     0.272727273
     0.818181818     0.818181818     0.909090909
     0.863636364     0.863636364     0.909090909
     0.818181818     0.954545455     0.136363636
     0.818181818     0.954545455     0.318181818
     0.863636364     0.909090909     0.863636364
     0.954545455     0.045454545     0.181818182
     0.954545455     0.045454545     0.272727273
     0.954545455     0.000000000     0.681818182
     0.909090909     0.000000000     0.727272727
     0.909090909     0.090909091     0.000000000
     0.954545455     0.090909091     0.409090909
     0.954545455     0.136363636     0.363636364
     0.954545455     0.090909091     0.863636364
     0.909090909     0.227272727     0.045454545
     0.909090909     0.181818182     0.181818182
     0.909090909     0.181818182     0.272727273
     0.954545455     0.181818182     0.863636364
     0.909090909     0.272727273     0.272727273
     0.909090909     0.272727273     0.363636364
     0.909090909     0.318181818     0.409090909
     0.909090909     0.272727273     0.909090909
     0.954545455     0.318181818     0.909090909
     0.909090909     0.409090909     0.318181818
     0.954545455     0.363636364     0.954545455
     0.909090909     0.454545455     0.272727273
     0.909090909     0.454545455     0.636363636
     0.954545455     0.500000000     0.727272727
     0.909090909     0.454545455     0.818181818
     0.909090909     0.500000000     0.954545455
     0.954545455     0.590909091     0.000000000
     0.909090909     0.545454545     0.818181818
     0.909090909     0.681818182     0.318181818
     0.954545455     0.681818182     0.272727273
     0.954545455     0.636363636     0.954545455
     0.909090909     0.727272727     0.000000000
     0.909090909     0.772727273     0.136363636
     0.909090909     0.727272727     0.363636364
     0.954545455     0.727272727     0.500000000
     0.909090909     0.727272727     0.727272727
     0.909090909     0.727272727     0.818181818
     0.909090909     0.727272727     0.909090909
     0.954545455     0.863636364     0.181818182
     0.909090909     0.863636364     0.590909091
     0.954545455     0.818181818     0.681818182
     0.909090909     0.818181818     0.818181818
     0.909090909     0.909090909     0.454545455
     0.909090909     0.954545455     0.500000000
     0.909090909     0.909090909     0.727272727
     0.000000000     0.000000000     0.272727273
     0.045454545     0.000000000     0.500000000
     0.045454545     0.045454545     0.727272727
     0.000000000     0.045454545     0.954545455
     0.000000000     0.090909091     0.272727273
     0.045454545     0.090909091     0.681818182
     0.000000000     0.136363636     0.772727273
     0.045454545     0.090909091     0.863636364
     0.000000000     0.227272727     0.045454545
     0.000000000     0.227272727     0.318181818
     0.000000000     0.181818182     0.363636364
     0.000000000     0.227272727     0.500000000
     0.045454545     0.227272727     0.909090909
     0.045454545     0.590909091     0.000000000
     0.045454545     0.545454545     0.500000000
     0.000000000     0.545454545     0.636363636
     0.000000000     0.681818182     0.500000000
     0.000000000     0.727272727     0.636363636
     0.045454545     0.818181818     0.045454545
     0.000000000     0.909090909     0.818181818
     0.136363636     0.090909091     0.045454545
     0.090909091     0.136363636     0.136363636
     0.090909091     0.136363636     0.772727273
     0.136363636     0.181818182     0.409090909
     0.090909091     0.227272727     0.590909091
     0.090909091     0.272727273     0.000000000
     0.090909091     0.272727273     0.363636364
     0.136363636     0.318181818     0.727272727
     0.090909091     0.409090909     0.045454545
     0.090909091     0.500000000     0.136363636
     0.136363636     0.454545455     0.409090909
     0.136363636     0.454545455     0.954545455
     0.090909091     0.590909091     0.045454545
     0.136363636     0.727272727     0.318181818
     0.090909091     0.772727273     0.681818182
     0.136363636     0.727272727     0.954545455
     0.090909091     0.818181818     0.000000000
     0.136363636     0.863636364     0.454545455
     0.136363636     0.954545455     0.636363636
     0.090909091     0.954545455     0.863636364
     0.181818182     0.000000000     0.818181818
     0.227272727     0.136363636     0.181818182
     0.227272727     0.090909091     0.681818182
     0.227272727     0.181818182     0.136363636
     0.181818182     0.227272727     0.318181818
     0.181818182     0.181818182     0.636363636
     0.181818182     0.318181818     0.136363636
     0.181818182     0.409090909     0.772727273
     0.181818182     0.454545455     0.818181818
     0.227272727     0.590909091     0.454545455
     0.181818182     0.681818182     0.590909091
     0.227272727     0.681818182     0.636363636
     0.181818182     0.727272727     0.181818182
     0.227272727     0.727272727     0.681818182
     0.227272727     0.772727273     0.727272727
     0.181818182     0.727272727     0.909090909
     0.227272727     0.772727273     0.909090909
     0.181818182     0.863636364     0.500000000
     0.181818182     0.863636364     0.590909091
     0.181818182     0.909090909     0.818181818
     0.181818182     0.909090909     0.909090909
     0.318181818     0.000000000     0.227272727
     0.318181818     0.045454545     0.727272727
     0.272727273     0.136363636     0.045454545
     0.318181818     0.090909091     0.590909091
     0.272727273     0.136363636     0.681818182
     0.318181818     0.136363636     0.727272727
     0.272727273     0.227272727     0.863636364
     0.318181818     0.318181818     0.090909091
     0.318181818     0.272727273     0.500000000
     0.272727273     0.363636364     0.454545455
     0.318181818     0.590909091     0.181818182
     0.272727273     0.590909091     0.500000000
     0.318181818     0.681818182     0.000000000
     0.318181818     0.863636364     0.727272727
     0.318181818     0.909090909     0.136363636
     0.272727273     0.954545455     0.227272727
     0.318181818     0.954545455     0.636363636
     0.409090909     0.045454545     0.454545455
     0.363636364     0.045454545     0.590909091
     0.409090909     0.045454545     0.909090909
     0.363636364     0.227272727     0.681818182
     0.363636364     0.181818182     0.909090909
     0.409090909     0.227272727     0.909090909
     0.409090909     0.318181818     0.727272727
     0.409090909     0.272727273     0.954545455
     0.409090909     0.363636364     0.045454545
     0.409090909     0.409090909     0.000000000
     0.363636364     0.727272727     0.272727273
     0.363636364     0.772727273     0.590909091
     0.363636364     0.727272727     0.818181818
     0.409090909     0.818181818     0.045454545
     0.363636364     0.954545455     0.045454545
     0.363636364     0.909090909     0.636363636
     0.454545455     0.000000000     0.000000000
     0.500000000     0.045454545     0.818181818
     0.500000000     0.090909091     0.681818182
     0.454545455     0.227272727     0.045454545
     0.500000000     0.181818182     0.863636364
     0.500000000     0.318181818     0.000000000
     0.500000000     0.272727273     0.772727273
     0.454545455     0.409090909     0.045454545
     0.500000000     0.363636364     0.863636364
     0.500000000     0.454545455     0.863636364
     0.500000000     0.545454545     0.318181818
     0.454545455     0.545454545     0.636363636
     0.454545455     0.636363636     0.000000000
     0.454545455     0.863636364     0.772727273
     0.454545455     0.909090909     0.090909091
     0.500000000     0.954545455     0.454545455
     0.454545455     0.954545455     0.681818182
     0.590909091     0.000000000     0.409090909
     0.545454545     0.227272727     0.590909091
     0.545454545     0.227272727     0.681818182
     0.545454545     0.227272727     0.954545455
     0.590909091     0.363636364     0.500000000
     0.590909091     0.454545455     0.045454545
     0.590909091     0.500000000     0.090909091
     0.545454545     0.454545455     0.545454545
     0.545454545     0.545454545     0.636363636
     0.545454545     0.681818182     0.227272727
     0.545454545     0.636363636     0.454545455
     0.545454545     0.727272727     0.090909091
     0.590909091     0.863636364     0.363636364
     0.545454545     0.954545455     0.227272727
     0.590909091     0.954545455     0.181818182
     0.681818182     0.000000000     0.409090909
     0.636363636     0.318181818     0.863636364
     0.681818182     0.681818182     0.272727273
     0.681818182     0.727272727     0.318181818
     0.636363636     0.818181818     0.272727273
     0.636363636     0.954545455     0.045454545
     0.681818182     0.909090909     0.045454545
     0.681818182     0.954545455     0.000000000
     0.636363636     0.909090909     0.545454545
     0.681818182     0.909090909     0.954545455
     0.772727273     0.000000000     0.136363636
     0.727272727     0.090909091     0.272727273
     0.727272727     0.272727273     0.000000000
     0.772727273     0.318181818     0.090909091
     0.727272727     0.318181818     0.681818182
     0.727272727     0.363636364     0.272727273
     0.772727273     0.454545455     0.772727273
     0.772727273     0.500000000     0.909090909
     0.772727273     0.636363636     0.409090909
     0.727272727     0.681818182     0.500000000
     0.727272727     0.636363636     0.727272727
     0.727272727     0.818181818     0.090909091
     0.772727273     0.863636364     0.545454545
     0.727272727     0.818181818     0.909090909
     0.727272727     0.909090909     0.181818182
     0.727272727     0.954545455     0.409090909
     0.818181818     0.045454545     0.500000000
     0.818181818     0.000000000     0.636363636
     0.863636364     0.090909091     0.045454545
     0.818181818     0.090909091     0.181818182
     0.818181818     0.090909091     0.727272727
     0.818181818     0.181818182     0.727272727
     0.863636364     0.409090909     0.000000000
     0.863636364     0.363636364     0.227272727
     0.818181818     0.500000000     0.318181818
     0.818181818     0.500000000     0.772727273
     0.818181818     0.454545455     0.909090909
     0.863636364     0.636363636     0.590909091
     0.818181818     0.636363636     0.636363636
     0.818181818     0.636363636     0.818181818
     0.863636364     0.727272727     0.136363636
     0.863636364     0.909090909     0.772727273
     0.909090909     0.000000000     0.090909091
     0.909090909     0.045454545     0.136363636
     0.954545455     0.000000000     0.318181818
     0.909090909     0.000000000     0.545454545
     0.954545455     0.000000000     0.772727273
     0.909090909     0.136363636     0.318181818
     0.954545455     0.090909091     0.590909091
     0.954545455     0.227272727     0.000000000
     0.954545455     0.272727273     0.409090909
     0.909090909     0.409090909     0.954545455
     0.954545455     0.454545455     0.590909091
     0.954545455     0.590909091     0.181818182
     0.909090909     0.545454545     0.454545455
     0.954545455     0.681818182     0.454545455
     0.909090909     0.636363636     0.545454545
     0.909090909     0.636363636     0.636363636
     0.909090909     0.772727273     0.227272727
     0.954545455     0.727272727     0.318181818
     0.909090909     0.772727273     0.500000000
     0.909090909     0.863636364     0.681818182
     0.909090909     0.818181818     0.909090909
     0.954545455     0.954545455     0.272727273
     0.909090909     0.909090909     0.545454545
     0.954545455     0.954545455     0.818181818
     0.000000000     0.000000000     0.545454545
     0.000000000     0.000000000     0.818181818
     0.000000000     0.136363636     0.318181818
     0.000000000     0.090909091     0.545454545
     0.045454545     0.136363636     0.636363636
     0.045454545     0.136363636     0.727272727
     0.045454545     0.227272727     0.090909091
     0.000000000     0.181818182     0.545454545
     0.045454545     0.227272727     0.727272727
     0.045454545     0.227272727     0.818181818
     0.000000000     0.318181818     0.227272727
     0.045454545     0.318181818     0.272727273
     0.045454545     0.318181818     0.363636364
     0.000000000     0.272727273     0.454545455
     0.000000000     0.318181818     0.500000000
     0.000000000     0.272727273     0.636363636
     0.000000000     0.272727273     0.818181818
     0.000000000     0.272727273     0.909090909
     0.000000000     0.409090909     0.136363636
     0.045454545     0.363636364     0.136363636
     0.045454545     0.409090909     0.090909091
     0.000000000     0.363636364     0.454545455
     0.045454545     0.363636364     0.500000000
     0.000000000     0.409090909     0.681818182
     0.045454545     0.363636364     0.772727273
     0.045454545     0.363636364     0.954545455
     0.000000000     0.454545455     0.000000000
     0.045454545     0.500000000     0.090909091
     0.045454545     0.500000000     0.363636364
     0.045454545     0.454545455     0.590909091
     0.045454545     0.500000000     0.636363636
     0.045454545     0.500000000     0.909090909
     0.000000000     0.545454545     0.090909091
     0.045454545     0.545454545     0.863636364
     0.045454545     0.681818182     0.181818182
     0.045454545     0.681818182     0.363636364
     0.000000000     0.636363636     0.636363636
     0.000000000     0.681818182     0.681818182
     0.000000000     0.727272727     0.000000000
     0.000000000     0.727272727     0.090909091
     0.045454545     0.772727273     0.181818182
     0.000000000     0.727272727     0.545454545
     0.045454545     0.727272727     0.681818182
     0.000000000     0.863636364     0.045454545
     0.045454545     0.863636364     0.000000000
     0.000000000     0.818181818     0.272727273
     0.045454545     0.863636364     0.272727273
     0.000000000     0.818181818     0.363636364
     0.000000000     0.954545455     0.045454545
     0.000000000     0.909090909     0.272727273
     0.000000000     0.954545455     0.409090909
     0.000000000     0.954545455     0.500000000
     0.000000000     0.909090909     0.545454545
     0.045454545     0.954545455     0.636363636
     0.000000000     0.954545455     0.772727273
     0.045454545     0.909090909     0.772727273
     0.000000000     0.909090909     0.909090909
     0.136363636     0.000000000     0.500000000
     0.136363636     0.045454545     0.545454545
     0.090909091     0.045454545     0.954545455
     0.090909091     0.090909091     0.000000000
     0.136363636     0.136363636     0.000000000
     0.090909091     0.181818182     0.272727273
     0.090909091     0.181818182     0.454545455
     0.090909091     0.181818182     0.545454545
     0.090909091     0.181818182     0.727272727
     0.136363636     0.181818182     0.954545455
     0.136363636     0.318181818     0.090909091
     0.136363636     0.318181818     0.454545455
     0.090909091     0.272727273     0.636363636
     0.136363636     0.409090909     0.000000000
     0.090909091     0.363636364     0.363636364
     0.136363636     0.409090909     0.545454545
     0.090909091     0.363636364     0.727272727
     0.136363636     0.500000000     0.000000000
     0.090909091     0.454545455     0.181818182
     0.136363636     0.454545455     0.772727273
     0.090909091     0.545454545     0.363636364
     0.090909091     0.545454545     0.727272727
     0.090909091     0.590909091     0.772727273
     0.090909091     0.681818182     0.136363636
     0.090909091     0.636363636     0.454545455
     0.136363636     0.636363636     0.681818182
     0.136363636     0.727272727     0.227272727
     0.136363636     0.772727273     0.636363636
     0.090909091     0.772727273     0.772727273
     0.136363636     0.863636364     0.181818182
     0.090909091     0.954545455     0.045454545
     0.090909091     0.909090909     0.090909091
     0.090909091     0.909090909     0.545454545
     0.090909091     0.954545455     0.772727273
     0.136363636     0.954545455     0.818181818
     0.181818182     0.000000000     0.000000000
     0.181818182     0.000000000     0.454545455
     0.227272727     0.000000000     0.681818182
     0.227272727     0.045454545     0.909090909
     0.181818182     0.090909091     0.090909091
     0.227272727     0.090909091     0.136363636
     0.181818182     0.090909091     0.272727273
     0.227272727     0.090909091     0.409090909
     0.227272727     0.227272727     0.090909091
     0.227272727     0.227272727     0.454545455
     0.227272727     0.181818182     0.681818182
     0.227272727     0.227272727     0.636363636
     0.181818182     0.272727273     0.181818182
     0.227272727     0.318181818     0.181818182
     0.181818182     0.272727273     0.272727273
     0.227272727     0.272727273     0.772727273
     0.181818182     0.318181818     0.954545455
     0.181818182     0.363636364     0.181818182
     0.181818182     0.409090909     0.227272727
     0.227272727     0.363636364     0.863636364
     0.227272727     0.454545455     0.136363636
     0.227272727     0.500000000     0.454545455
     0.227272727     0.454545455     0.681818182
     0.181818182     0.590909091     0.409090909
     0.181818182     0.545454545     0.545454545
     0.181818182     0.545454545     0.636363636
     0.227272727     0.545454545     0.681818182
     0.227272727     0.545454545     0.863636364
     0.227272727     0.681818182     0.000000000
     0.227272727     0.636363636     0.227272727
     0.181818182     0.636363636     0.454545455
     0.227272727     0.636363636     0.500000000
     0.181818182     0.636363636     0.727272727
     0.227272727     0.636363636     0.954545455
     0.181818182     0.727272727     0.363636364
     0.227272727     0.772727273     0.363636364
     0.181818182     0.772727273     0.681818182
     0.181818182     0.818181818     0.363636364
     0.227272727     0.863636364     0.727272727
     0.227272727     0.818181818     0.954545455
     0.227272727     0.909090909     0.136363636
     0.181818182     0.954545455     0.227272727
     0.181818182     0.954545455     0.681818182
     0.227272727     0.909090909     0.954545455
     0.272727273     0.045454545     0.136363636
     0.272727273     0.045454545     0.500000000
     0.272727273     0.045454545     0.681818182
     0.318181818     0.136363636     0.000000000
     0.318181818     0.090909091     0.318181818
     0.272727273     0.136363636     0.772727273
     0.318181818     0.090909091     0.772727273
     0.318181818     0.090909091     0.863636364
     0.318181818     0.136363636     0.909090909
     0.272727273     0.181818182     0.181818182
     0.318181818     0.227272727     0.272727273
     0.272727273     0.227272727     0.681818182
     0.272727273     0.181818182     0.727272727
     0.318181818     0.227272727     0.818181818
     0.272727273     0.318181818     0.227272727
     0.272727273     0.272727273     0.454545455
     0.318181818     0.318181818     0.545454545
     0.318181818     0.272727273     0.954545455
     0.272727273     0.409090909     0.227272727
     0.318181818     0.363636364     0.227272727
     0.318181818     0.409090909     0.545454545
     0.272727273     0.409090909     0.681818182
     0.318181818     0.409090909     0.636363636
     0.272727273     0.363636364     0.818181818
     0.272727273     0.500000000     0.500000000
     0.272727273     0.500000000     0.681818182
     0.272727273     0.590909091     0.863636364
     0.318181818     0.590909091     0.909090909
     0.272727273     0.636363636     0.363636364
     0.272727273     0.681818182     0.681818182
     0.318181818     0.727272727     0.136363636
     0.272727273     0.727272727     0.545454545
     0.318181818     0.772727273     0.636363636
     0.318181818     0.727272727     0.772727273
     0.272727273     0.863636364     0.136363636
     0.272727273     0.818181818     0.636363636
     0.272727273     0.909090909     0.363636364
     0.272727273     0.909090909     0.545454545
     0.318181818     0.909090909     0.772727273
     0.409090909     0.045454545     0.000000000
     0.363636364     0.000000000     0.363636364
     0.363636364     0.045454545     0.409090909
     0.409090909     0.000000000     0.409090909
     0.363636364     0.000000000     0.636363636
     0.409090909     0.045454545     0.636363636
     0.409090909     0.000000000     0.954545455
     0.363636364     0.090909091     0.181818182
     0.409090909     0.090909091     0.227272727
     0.409090909     0.090909091     0.318181818
     0.363636364     0.090909091     0.727272727
     0.363636364     0.136363636     0.863636364
     0.409090909     0.090909091     0.863636364
     0.363636364     0.227272727     0.045454545
     0.409090909     0.181818182     0.227272727
     0.363636364     0.181818182     0.272727273
     0.363636364     0.181818182     0.363636364
     0.363636364     0.318181818     0.045454545
     0.409090909     0.272727273     0.863636364
     0.363636364     0.409090909     0.409090909
     0.409090909     0.363636364     0.954545455
     0.363636364     0.454545455     0.090909091
     0.409090909     0.454545455     0.500000000
     0.409090909     0.500000000     0.545454545
     0.363636364     0.454545455     0.636363636
     0.409090909     0.500000000     0.636363636
     0.409090909     0.454545455     0.772727273
     0.409090909     0.545454545     0.318181818
     0.363636364     0.545454545     0.545454545
     0.363636364     0.590909091     0.772727273
     0.409090909     0.590909091     0.727272727
     0.363636364     0.545454545     0.909090909
     0.409090909     0.590909091     0.909090909
     0.409090909     0.681818182     0.090909091
     0.363636364     0.636363636     0.363636364
     0.409090909     0.681818182     0.545454545
     0.363636364     0.636363636     0.727272727
     0.409090909     0.636363636     0.863636364
     0.409090909     0.636363636     0.954545455
     0.409090909     0.772727273     0.000000000
     0.363636364     0.772727273     0.409090909
     0.409090909     0.727272727     0.863636364
     0.363636364     0.818181818     0.454545455
     0.409090909     0.863636364     0.636363636
     0.363636364     0.863636364     0.772727273
     0.409090909     0.863636364     0.727272727
     0.409090909     0.818181818     0.954545455
     0.363636364     0.909090909     0.090909091
     0.363636364     0.954545455     0.136363636
     0.363636364     0.954545455     0.227272727
     0.409090909     0.954545455     0.454545455
     0.409090909     0.909090909     0.681818182
     0.363636364     0.909090909     0.727272727
     0.363636364     0.954545455     0.863636364
     0.454545455     0.045454545     0.045454545
     0.500000000     0.000000000     0.045454545
     0.500000000     0.045454545     0.000000000
     0.454545455     0.045454545     0.954545455
     0.454545455     0.136363636     0.045454545
     0.454545455     0.136363636     0.227272727
     0.500000000     0.136363636     0.545454545
     0.454545455     0.136363636     0.954545455
     0.500000000     0.181818182     0.318181818
     0.500000000     0.181818182     0.409090909
     0.500000000     0.227272727     0.727272727
     0.454545455     0.318181818     0.045454545
     0.454545455     0.363636364     0.181818182
     0.454545455     0.409090909     0.227272727
     0.500000000     0.363636364     0.409090909
     0.454545455     0.363636364     0.909090909
     0.454545455     0.454545455     0.363636364
     0.500000000     0.500000000     0.363636364
     0.454545455     0.454545455     0.545454545
     0.500000000     0.454545455     0.590909091
     0.454545455     0.500000000     0.681818182
     0.454545455     0.500000000     0.954545455
     0.500000000     0.545454545     0.045454545
     0.500000000     0.545454545     0.500000000
     0.454545455     0.590909091     0.954545455
     0.500000000     0.681818182     0.000000000
     0.500000000     0.636363636     0.318181818
     0.500000000     0.636363636     0.863636364
     0.500000000     0.727272727     0.045454545
     0.500000000     0.772727273     0.000000000
     0.500000000     0.727272727     0.227272727
     0.500000000     0.727272727     0.590909091
     0.500000000     0.818181818     0.681818182
     0.454545455     0.863636364     0.954545455
     0.454545455     0.909090909     0.000000000
     0.454545455     0.954545455     0.136363636
     0.454545455     0.909090909     0.181818182
     0.454545455     0.954545455     0.954545455
     0.500000000     0.954545455     0.909090909
     0.590909091     0.000000000     0.045454545
     0.545454545     0.045454545     0.590909091
     0.590909091     0.045454545     0.545454545
     0.590909091     0.000000000     0.681818182
     0.545454545     0.000000000     0.818181818
     0.590909091     0.136363636     0.000000000
     0.545454545     0.227272727     0.136363636
     0.545454545     0.181818182     0.181818182
     0.590909091     0.227272727     0.636363636
     0.545454545     0.181818182     0.818181818
     0.545454545     0.272727273     0.090909091
     0.590909091     0.318181818     0.090909091
     0.590909091     0.318181818     0.272727273
     0.545454545     0.272727273     0.727272727
     0.545454545     0.318181818     0.772727273
     0.545454545     0.409090909     0.045454545
     0.590909091     0.363636364     0.045454545
     0.545454545     0.363636364     0.090909091
     0.545454545     0.363636364     0.181818182
     0.545454545     0.409090909     0.227272727
     0.545454545     0.409090909     0.409090909
     0.590909091     0.454545455     0.136363636
     0.545454545     0.454545455     0.818181818
     0.545454545     0.500000000     0.863636364
     0.545454545     0.454545455     0.909090909
     0.590909091     0.500000000     0.909090909
     0.590909091     0.590909091     0.000000000
     0.590909091     0.545454545     0.136363636
     0.590909091     0.590909091     0.181818182
     0.545454545     0.590909091     0.409090909
     0.590909091     0.681818182     0.090909091
     0.590909091     0.681818182     0.363636364
     0.590909091     0.681818182     0.636363636
     0.545454545     0.681818182     0.954545455
     0.590909091     0.772727273     0.000000000
     0.590909091     0.727272727     0.136363636
     0.545454545     0.772727273     0.227272727
     0.590909091     0.772727273     0.272727273
     0.590909091     0.772727273     0.636363636
     0.545454545     0.727272727     0.818181818
     0.590909091     0.863636364     0.000000000
     0.590909091     0.863636364     0.181818182
     0.545454545     0.909090909     0.363636364
     0.545454545     0.954545455     0.772727273
     0.545454545     0.954545455     0.863636364
     0.545454545     0.954545455     0.954545455
     0.590909091     0.954545455     0.909090909
     0.636363636     0.045454545     0.136363636
     0.636363636     0.045454545     0.227272727
     0.636363636     0.000000000     0.454545455
     0.681818182     0.000000000     0.590909091
     0.636363636     0.000000000     0.636363636
     0.636363636     0.000000000     0.727272727
     0.636363636     0.000000000     0.909090909
     0.681818182     0.000000000     0.954545455
     0.681818182     0.090909091     0.045454545
     0.681818182     0.136363636     0.545454545
     0.636363636     0.136363636     0.772727273
     0.636363636     0.181818182     0.454545455
     0.636363636     0.227272727     0.590909091
     0.636363636     0.181818182     0.909090909
     0.636363636     0.272727273     0.272727273
     0.636363636     0.318181818     0.318181818
     0.681818182     0.272727273     0.318181818
     0.681818182     0.272727273     0.409090909
     0.636363636     0.318181818     0.772727273
     0.636363636     0.409090909     0.045454545
     0.681818182     0.409090909     0.272727273
     0.636363636     0.363636364     0.454545455
     0.636363636     0.409090909     0.863636364
     0.636363636     0.363636364     0.909090909
     0.681818182     0.409090909     0.909090909
     0.636363636     0.454545455     0.090909091
     0.636363636     0.500000000     0.136363636
     0.681818182     0.454545455     0.772727273
     0.681818182     0.500000000     0.818181818
     0.636363636     0.545454545     0.272727273
     0.681818182     0.590909091     0.454545455
     0.636363636     0.590909091     0.772727273
     0.636363636     0.681818182     0.590909091
     0.636363636     0.681818182     0.681818182
     0.681818182     0.681818182     0.909090909
     0.636363636     0.727272727     0.090909091
     0.636363636     0.727272727     0.181818182
     0.636363636     0.727272727     0.363636364
     0.636363636     0.727272727     0.636363636
     0.636363636     0.727272727     0.727272727
     0.681818182     0.863636364     0.181818182
     0.681818182     0.818181818     0.681818182
     0.636363636     0.954545455     0.227272727
     0.681818182     0.909090909     0.772727273
     0.681818182     0.954545455     0.818181818
     0.772727273     0.045454545     0.000000000
     0.772727273     0.000000000     0.409090909
     0.727272727     0.000000000     0.545454545
     0.772727273     0.000000000     0.681818182
     0.727272727     0.000000000     0.727272727
     0.727272727     0.000000000     0.818181818
     0.727272727     0.000000000     0.909090909
     0.772727273     0.136363636     0.090909091
     0.727272727     0.136363636     0.409090909
     0.727272727     0.090909091     0.636363636
     0.772727273     0.136363636     0.636363636
     0.772727273     0.181818182     0.045454545
     0.727272727     0.181818182     0.272727273
     0.772727273     0.227272727     0.636363636
     0.727272727     0.181818182     0.727272727
     0.772727273     0.181818182     0.772727273
     0.772727273     0.272727273     0.045454545
     0.727272727     0.318181818     0.409090909
     0.727272727     0.272727273     0.636363636
     0.772727273     0.272727273     0.681818182
     0.727272727     0.318181818     0.772727273
     0.727272727     0.272727273     0.818181818
     0.772727273     0.409090909     0.181818182
     0.727272727     0.409090909     0.318181818
     0.772727273     0.409090909     0.363636364
     0.727272727     0.363636364     0.727272727
     0.772727273     0.363636364     0.772727273
     0.772727273     0.409090909     0.727272727
     0.727272727     0.409090909     0.954545455
     0.727272727     0.500000000     0.318181818
     0.727272727     0.500000000     0.500000000
     0.727272727     0.500000000     0.681818182
     0.772727273     0.500000000     0.636363636
     0.772727273     0.500000000     0.727272727
     0.727272727     0.545454545     0.000000000
     0.727272727     0.590909091     0.045454545
     0.727272727     0.545454545     0.181818182
     0.727272727     0.545454545     0.272727273
     0.772727273     0.545454545     0.409090909
     0.727272727     0.545454545     0.545454545
     0.727272727     0.590909091     0.954545455
     0.772727273     0.545454545     0.954545455
     0.727272727     0.636363636     0.363636364
     0.772727273     0.636363636     0.500000000
     0.727272727     0.681818182     0.681818182
     0.772727273     0.681818182     0.636363636
     0.772727273     0.681818182     0.727272727
     0.727272727     0.636363636     0.818181818
     0.727272727     0.681818182     0.863636364
     0.727272727     0.636363636     0.909090909
     0.772727273     0.636363636     0.954545455
     0.772727273     0.863636364     0.090909091
     0.727272727     0.863636364     0.227272727
     0.727272727     0.909090909     0.090909091
     0.772727273     0.954545455     0.090909091
     0.772727273     0.954545455     0.363636364
     0.772727273     0.954545455     0.545454545
     0.727272727     0.954545455     0.863636364
     0.727272727     0.954545455     0.954545455
     0.772727273     0.909090909     0.954545455
     0.863636364     0.045454545     0.090909091
     0.818181818     0.000000000     0.181818182
     0.863636364     0.045454545     0.181818182
     0.818181818     0.045454545     0.318181818
     0.818181818     0.000000000     0.909090909
     0.863636364     0.136363636     0.000000000
     0.863636364     0.136363636     0.181818182
     0.863636364     0.136363636     0.454545455
     0.818181818     0.090909091     0.545454545
     0.863636364     0.136363636     0.727272727
     0.818181818     0.181818182     0.181818182
     0.863636364     0.181818182     0.318181818
     0.863636364     0.181818182     0.681818182
     0.863636364     0.227272727     0.636363636
     0.818181818     0.227272727     0.772727273
     0.818181818     0.181818182     0.909090909
     0.818181818     0.272727273     0.090909091
     0.818181818     0.318181818     0.227272727
     0.818181818     0.272727273     0.272727273
     0.863636364     0.318181818     0.272727273
     0.818181818     0.272727273     0.363636364
     0.818181818     0.272727273     0.545454545
     0.863636364     0.272727273     0.590909091
     0.863636364     0.318181818     0.545454545
     0.818181818     0.363636364     0.090909091
     0.863636364     0.409090909     0.272727273
     0.818181818     0.409090909     0.500000000
     0.818181818     0.409090909     0.590909091
     0.818181818     0.363636364     0.636363636
     0.818181818     0.363636364     0.818181818
     0.818181818     0.409090909     0.863636364
     0.818181818     0.409090909     0.954545455
     0.863636364     0.363636364     0.954545455
     0.818181818     0.454545455     0.181818182
     0.818181818     0.500000000     0.590909091
     0.863636364     0.590909091     0.181818182
     0.863636364     0.590909091     0.636363636
     0.863636364     0.681818182     0.363636364
     0.863636364     0.681818182     0.454545455
     0.863636364     0.772727273     0.000000000
     0.818181818     0.727272727     0.090909091
     0.863636364     0.772727273     0.727272727
     0.863636364     0.727272727     0.954545455
     0.818181818     0.818181818     0.454545455
     0.818181818     0.818181818     0.545454545
     0.863636364     0.863636364     0.545454545
     0.863636364     0.818181818     0.772727273
     0.818181818     0.863636364     0.954545455
     0.818181818     0.909090909     0.000000000
     0.863636364     0.909090909     0.045454545
     0.863636364     0.909090909     0.318181818
     0.863636364     0.954545455     0.363636364
     0.818181818     0.954545455     0.590909091
     0.818181818     0.954545455     0.772727273
     0.909090909     0.045454545     0.045454545
     0.954545455     0.045454545     0.000000000
     0.954545455     0.000000000     0.136363636
     0.909090909     0.000000000     0.272727273
     0.909090909     0.045454545     0.409090909
     0.954545455     0.000000000     0.409090909
     0.909090909     0.000000000     0.454545455
     0.954545455     0.000000000     0.500000000
     0.954545455     0.045454545     0.545454545
     0.954545455     0.045454545     0.818181818
     0.909090909     0.136363636     0.045454545
     0.954545455     0.090909091     0.045454545
     0.954545455     0.136363636     0.272727273
     0.909090909     0.136363636     0.954545455
     0.909090909     0.227272727     0.136363636
     0.954545455     0.181818182     0.318181818
     0.909090909     0.227272727     0.590909091
     0.909090909     0.181818182     0.636363636
     0.909090909     0.227272727     0.863636364
     0.909090909     0.318181818     0.136363636
     0.954545455     0.272727273     0.227272727
     0.954545455     0.272727273     0.681818182
     0.954545455     0.318181818     0.727272727
     0.954545455     0.363636364     0.136363636
     0.954545455     0.363636364     0.318181818
     0.909090909     0.363636364     0.545454545
     0.909090909     0.363636364     0.636363636
     0.954545455     0.363636364     0.863636364
     0.954545455     0.500000000     0.272727273
     0.909090909     0.454545455     0.363636364
     0.954545455     0.500000000     0.363636364
     0.954545455     0.454545455     0.500000000
     0.909090909     0.500000000     0.590909091
     0.954545455     0.500000000     0.636363636
     0.954545455     0.545454545     0.318181818
     0.954545455     0.545454545     0.772727273
     0.954545455     0.636363636     0.045454545
     0.909090909     0.681818182     0.227272727
     0.909090909     0.636363636     0.272727273
     0.909090909     0.681818182     0.500000000
     0.954545455     0.636363636     0.772727273
     0.954545455     0.681818182     0.818181818
     0.909090909     0.636363636     0.909090909
     0.954545455     0.681818182     0.909090909
     0.954545455     0.727272727     0.136363636
     0.954545455     0.727272727     0.681818182
     0.954545455     0.818181818     0.045454545
     0.954545455     0.818181818     0.227272727
     0.909090909     0.818181818     0.454545455
     0.909090909     0.863636364     0.500000000
     0.954545455     0.818181818     0.590909091
     0.909090909     0.909090909     0.000000000
     0.909090909     0.954545455     0.136363636
     0.909090909     0.909090909     0.181818182
     0.954545455     0.954545455     0.181818182
     0.954545455     0.909090909     0.409090909
     0.909090909     0.954545455     0.681818182
     0.954545455     0.954545455     0.636363636
     0.000000000     0.000000000     0.000000000
     0.045454545     0.000000000     0.045454545
     0.045454545     0.045454545     0.000000000
     0.000000000     0.000000000     0.090909091
     0.045454545     0.000000000     0.136363636
     0.045454545     0.045454545     0.090909091
     0.000000000     0.000000000     0.181818182
     0.000000000     0.045454545     0.227272727
     0.045454545     0.000000000     0.227272727
     0.045454545     0.045454545     0.181818182
     0.000000000     0.045454545     0.318181818
     0.045454545     0.000000000     0.318181818
     0.045454545     0.045454545     0.272727273
     0.000000000     0.000000000     0.363636364
     0.000000000     0.045454545     0.409090909
     0.045454545     0.000000000     0.409090909
     0.045454545     0.045454545     0.363636364
     0.000000000     0.045454545     0.500000000
     0.045454545     0.045454545     0.454545455
     0.000000000     0.045454545     0.590909091
     0.045454545     0.000000000     0.590909091
     0.045454545     0.045454545     0.545454545
     0.000000000     0.000000000     0.636363636
     0.000000000     0.045454545     0.681818182
     0.045454545     0.000000000     0.681818182
     0.045454545     0.045454545     0.636363636
     0.000000000     0.000000000     0.727272727
     0.000000000     0.045454545     0.772727273
     0.045454545     0.000000000     0.772727273
     0.000000000     0.045454545     0.863636364
     0.045454545     0.000000000     0.863636364
     0.000000000     0.000000000     0.909090909
     0.045454545     0.000000000     0.954545455
     0.045454545     0.045454545     0.909090909
     0.000000000     0.136363636     0.045454545
     0.045454545     0.090909091     0.045454545
     0.045454545     0.136363636     0.000000000
     0.000000000     0.136363636     0.136363636
     0.045454545     0.136363636     0.090909091
     0.000000000     0.090909091     0.181818182
     0.000000000     0.136363636     0.227272727
     0.045454545     0.090909091     0.227272727
     0.045454545     0.136363636     0.181818182
     0.045454545     0.090909091     0.318181818
     0.045454545     0.136363636     0.272727273
     0.000000000     0.090909091     0.363636364
     0.000000000     0.136363636     0.409090909
     0.045454545     0.090909091     0.409090909
     0.045454545     0.136363636     0.363636364
     0.000000000     0.090909091     0.454545455
     0.000000000     0.136363636     0.500000000
     0.045454545     0.090909091     0.500000000
     0.045454545     0.136363636     0.454545455
     0.045454545     0.090909091     0.590909091
     0.045454545     0.136363636     0.545454545
     0.000000000     0.090909091     0.636363636
     0.000000000     0.136363636     0.681818182
     0.000000000     0.090909091     0.727272727
     0.045454545     0.090909091     0.772727273
     0.000000000     0.090909091     0.818181818
     0.000000000     0.136363636     0.863636364
     0.045454545     0.136363636     0.818181818
     0.000000000     0.090909091     0.909090909
     0.000000000     0.136363636     0.954545455
     0.045454545     0.090909091     0.954545455
     0.045454545     0.136363636     0.909090909
     0.000000000     0.181818182     0.000000000
     0.045454545     0.181818182     0.045454545
     0.045454545     0.227272727     0.000000000
     0.000000000     0.181818182     0.090909091
     0.000000000     0.227272727     0.136363636
     0.045454545     0.181818182     0.136363636
     0.000000000     0.181818182     0.181818182
     0.045454545     0.227272727     0.181818182
     0.045454545     0.181818182     0.318181818
     0.000000000     0.227272727     0.409090909
     0.045454545     0.181818182     0.409090909
     0.045454545     0.227272727     0.363636364
     0.000000000     0.181818182     0.454545455
     0.045454545     0.181818182     0.500000000
     0.045454545     0.181818182     0.590909091
     0.045454545     0.227272727     0.545454545
     0.000000000     0.181818182     0.636363636
     0.000000000     0.227272727     0.681818182
     0.045454545     0.181818182     0.681818182
     0.045454545     0.227272727     0.636363636
     0.000000000     0.181818182     0.727272727
     0.000000000     0.227272727     0.772727273
     0.045454545     0.181818182     0.772727273
     0.000000000     0.181818182     0.818181818
     0.045454545     0.181818182     0.863636364
     0.000000000     0.181818182     0.909090909
     0.000000000     0.227272727     0.954545455
     0.045454545     0.181818182     0.954545455
     0.000000000     0.318181818     0.045454545
     0.045454545     0.272727273     0.045454545
     0.045454545     0.318181818     0.000000000
     0.000000000     0.272727273     0.090909091
     0.000000000     0.318181818     0.136363636
     0.045454545     0.272727273     0.136363636
     0.045454545     0.318181818     0.090909091
     0.000000000     0.272727273     0.181818182
     0.045454545     0.272727273     0.227272727
     0.000000000     0.272727273     0.272727273
     0.000000000     0.318181818     0.318181818
     0.045454545     0.272727273     0.318181818
     0.000000000     0.318181818     0.409090909
     0.045454545     0.272727273     0.409090909
     0.045454545     0.318181818     0.454545455
     0.000000000     0.272727273     0.545454545
     0.000000000     0.318181818     0.590909091
     0.000000000     0.318181818     0.681818182
     0.045454545     0.318181818     0.636363636
     0.000000000     0.272727273     0.727272727
     0.000000000     0.318181818     0.772727273
     0.045454545     0.272727273     0.772727273
     0.045454545     0.318181818     0.727272727
     0.000000000     0.318181818     0.863636364
     0.045454545     0.272727273     0.863636364
     0.000000000     0.318181818     0.954545455
     0.045454545     0.272727273     0.954545455
     0.045454545     0.318181818     0.909090909
     0.000000000     0.363636364     0.000000000
     0.000000000     0.409090909     0.045454545
     0.045454545     0.363636364     0.045454545
     0.045454545     0.409090909     0.000000000
     0.000000000     0.363636364     0.090909091
     0.000000000     0.363636364     0.181818182
     0.000000000     0.409090909     0.227272727
     0.045454545     0.363636364     0.227272727
     0.045454545     0.409090909     0.181818182
     0.000000000     0.363636364     0.272727273
     0.000000000     0.409090909     0.318181818
     0.045454545     0.409090909     0.272727273
     0.000000000     0.363636364     0.363636364
     0.000000000     0.409090909     0.409090909
     0.045454545     0.363636364     0.409090909
     0.045454545     0.409090909     0.363636364
     0.000000000     0.409090909     0.500000000
     0.000000000     0.363636364     0.545454545
     0.045454545     0.363636364     0.590909091
     0.045454545     0.409090909     0.545454545
     0.000000000     0.363636364     0.636363636
     0.045454545     0.363636364     0.681818182
     0.045454545     0.409090909     0.636363636
     0.000000000     0.363636364     0.727272727
     0.000000000     0.409090909     0.772727273
     0.045454545     0.409090909     0.727272727
     0.000000000     0.363636364     0.818181818
     0.000000000     0.409090909     0.863636364
     0.045454545     0.363636364     0.863636364
     0.000000000     0.363636364     0.909090909
     0.000000000     0.409090909     0.954545455
     0.045454545     0.409090909     0.909090909
     0.000000000     0.500000000     0.045454545
     0.045454545     0.454545455     0.045454545
     0.000000000     0.454545455     0.090909091
     0.000000000     0.500000000     0.136363636
     0.000000000     0.454545455     0.181818182
     0.000000000     0.500000000     0.227272727
     0.045454545     0.454545455     0.227272727
     0.045454545     0.500000000     0.181818182
     0.000000000     0.454545455     0.272727273
     0.045454545     0.454545455     0.318181818
     0.045454545     0.500000000     0.272727273
     0.000000000     0.454545455     0.363636364
     0.000000000     0.500000000     0.409090909
     0.045454545     0.454545455     0.409090909
     0.000000000     0.454545455     0.454545455
     0.000000000     0.500000000     0.500000000
     0.045454545     0.454545455     0.500000000
     0.045454545     0.500000000     0.454545455
     0.000000000     0.454545455     0.545454545
     0.000000000     0.500000000     0.590909091
     0.045454545     0.500000000     0.545454545
     0.000000000     0.454545455     0.636363636
     0.000000000     0.500000000     0.681818182
     0.045454545     0.454545455     0.681818182
     0.000000000     0.454545455     0.727272727
     0.000000000     0.500000000     0.772727273
     0.045454545     0.454545455     0.772727273
     0.045454545     0.500000000     0.727272727
     0.000000000     0.454545455     0.818181818
     0.000000000     0.500000000     0.863636364
     0.045454545     0.454545455     0.863636364
     0.045454545     0.500000000     0.818181818
     0.000000000     0.454545455     0.909090909
     0.000000000     0.500000000     0.954545455
     0.045454545     0.454545455     0.954545455
     0.000000000     0.545454545     0.000000000
     0.000000000     0.590909091     0.045454545
     0.045454545     0.545454545     0.045454545
     0.045454545     0.545454545     0.136363636
     0.045454545     0.590909091     0.090909091
     0.000000000     0.545454545     0.181818182
     0.000000000     0.590909091     0.227272727
     0.045454545     0.545454545     0.227272727
     0.045454545     0.590909091     0.181818182
     0.000000000     0.545454545     0.272727273
     0.000000000     0.590909091     0.318181818
     0.045454545     0.545454545     0.318181818
     0.045454545     0.590909091     0.272727273
     0.000000000     0.590909091     0.409090909
     0.045454545     0.545454545     0.409090909
     0.045454545     0.590909091     0.363636364
     0.000000000     0.545454545     0.454545455
     0.000000000     0.590909091     0.500000000
     0.000000000     0.545454545     0.545454545
     0.000000000     0.590909091     0.590909091
     0.045454545     0.545454545     0.590909091
     0.045454545     0.590909091     0.545454545
     0.000000000     0.590909091     0.681818182
     0.045454545     0.590909091     0.636363636
     0.000000000     0.545454545     0.727272727
     0.000000000     0.590909091     0.772727273
     0.045454545     0.545454545     0.772727273
     0.045454545     0.590909091     0.727272727
     0.000000000     0.545454545     0.818181818
     0.000000000     0.590909091     0.863636364
     0.045454545     0.590909091     0.818181818
     0.000000000     0.545454545     0.909090909
     0.045454545     0.545454545     0.954545455
     0.045454545     0.590909091     0.909090909
     0.000000000     0.681818182     0.045454545
     0.045454545     0.681818182     0.000000000
     0.000000000     0.636363636     0.090909091
     0.000000000     0.681818182     0.136363636
     0.045454545     0.636363636     0.136363636
     0.045454545     0.681818182     0.090909091
     0.000000000     0.636363636     0.181818182
     0.000000000     0.681818182     0.227272727
     0.045454545     0.636363636     0.227272727
     0.000000000     0.636363636     0.272727273
     0.000000000     0.681818182     0.318181818
     0.045454545     0.636363636     0.318181818
     0.045454545     0.681818182     0.272727273
     0.000000000     0.636363636     0.363636364
     0.000000000     0.681818182     0.409090909
     0.045454545     0.636363636     0.409090909
     0.000000000     0.636363636     0.454545455
     0.045454545     0.636363636     0.500000000
     0.045454545     0.681818182     0.454545455
     0.000000000     0.636363636     0.545454545
     0.000000000     0.681818182     0.590909091
     0.045454545     0.636363636     0.590909091
     0.045454545     0.681818182     0.545454545
     0.045454545     0.636363636     0.681818182
     0.045454545     0.681818182     0.636363636
     0.000000000     0.636363636     0.727272727
     0.000000000     0.681818182     0.772727273
     0.045454545     0.636363636     0.772727273
     0.000000000     0.636363636     0.818181818
     0.045454545     0.636363636     0.863636364
     0.045454545     0.681818182     0.818181818
     0.000000000     0.636363636     0.909090909
     0.000000000     0.681818182     0.954545455
     0.045454545     0.636363636     0.954545455
     0.045454545     0.681818182     0.909090909
     0.000000000     0.772727273     0.045454545
     0.000000000     0.772727273     0.136363636
     0.045454545     0.772727273     0.090909091
     0.000000000     0.727272727     0.181818182
     0.000000000     0.772727273     0.227272727
     0.045454545     0.727272727     0.227272727
     0.000000000     0.727272727     0.272727273
     0.000000000     0.772727273     0.318181818
     0.000000000     0.727272727     0.363636364
     0.000000000     0.772727273     0.409090909
     0.045454545     0.727272727     0.409090909
     0.000000000     0.727272727     0.454545455
     0.000000000     0.772727273     0.500000000
     0.045454545     0.727272727     0.500000000
     0.045454545     0.772727273     0.454545455
     0.045454545     0.727272727     0.590909091
     0.000000000     0.772727273     0.681818182
     0.045454545     0.772727273     0.636363636
     0.000000000     0.727272727     0.727272727
     0.000000000     0.772727273     0.772727273
     0.045454545     0.727272727     0.772727273
     0.045454545     0.772727273     0.727272727
     0.000000000     0.772727273     0.863636364
     0.045454545     0.727272727     0.863636364
     0.045454545     0.772727273     0.818181818
     0.000000000     0.772727273     0.954545455
     0.045454545     0.727272727     0.954545455
     0.045454545     0.772727273     0.909090909
     0.000000000     0.818181818     0.000000000
     0.000000000     0.818181818     0.090909091
     0.000000000     0.863636364     0.136363636
     0.045454545     0.818181818     0.136363636
     0.045454545     0.863636364     0.090909091
     0.000000000     0.818181818     0.181818182
     0.045454545     0.818181818     0.227272727
     0.045454545     0.863636364     0.181818182
     0.045454545     0.818181818     0.318181818
     0.000000000     0.863636364     0.409090909
     0.045454545     0.818181818     0.409090909
     0.045454545     0.863636364     0.363636364
     0.000000000     0.818181818     0.454545455
     0.000000000     0.863636364     0.500000000
     0.045454545     0.818181818     0.500000000
     0.045454545     0.863636364     0.454545455
     0.000000000     0.818181818     0.545454545
     0.000000000     0.863636364     0.590909091
     0.045454545     0.818181818     0.590909091
     0.045454545     0.863636364     0.545454545
     0.000000000     0.818181818     0.636363636
     0.000000000     0.863636364     0.681818182
     0.045454545     0.818181818     0.681818182
     0.045454545     0.863636364     0.636363636
     0.000000000     0.818181818     0.727272727
     0.000000000     0.863636364     0.772727273
     0.045454545     0.863636364     0.727272727
     0.000000000     0.818181818     0.818181818
     0.000000000     0.863636364     0.863636364
     0.045454545     0.818181818     0.863636364
     0.045454545     0.863636364     0.818181818
     0.000000000     0.818181818     0.909090909
     0.000000000     0.863636364     0.954545455
     0.045454545     0.818181818     0.954545455
     0.000000000     0.909090909     0.000000000
     0.045454545     0.909090909     0.045454545
     0.045454545     0.954545455     0.000000000
     0.000000000     0.909090909     0.090909091
     0.000000000     0.954545455     0.136363636
     0.045454545     0.909090909     0.136363636
     0.045454545     0.954545455     0.090909091
     0.000000000     0.954545455     0.227272727
     0.045454545     0.909090909     0.227272727
     0.045454545     0.954545455     0.181818182
     0.000000000     0.954545455     0.318181818
     0.045454545     0.909090909     0.318181818
     0.045454545     0.954545455     0.272727273
     0.000000000     0.909090909     0.454545455
     0.045454545     0.909090909     0.500000000
     0.045454545     0.954545455     0.454545455
     0.000000000     0.954545455     0.590909091
     0.045454545     0.909090909     0.590909091
     0.045454545     0.954545455     0.545454545
     0.000000000     0.909090909     0.636363636
     0.000000000     0.954545455     0.681818182
     0.045454545     0.909090909     0.681818182
     0.000000000     0.909090909     0.727272727
     0.045454545     0.954545455     0.727272727
     0.000000000     0.954545455     0.863636364
     0.045454545     0.909090909     0.863636364
     0.045454545     0.954545455     0.818181818
     0.000000000     0.954545455     0.954545455
     0.090909091     0.000000000     0.000000000
     0.136363636     0.000000000     0.045454545
     0.136363636     0.045454545     0.000000000
     0.090909091     0.000000000     0.090909091
     0.090909091     0.045454545     0.136363636
     0.136363636     0.000000000     0.136363636
     0.136363636     0.045454545     0.090909091
     0.090909091     0.000000000     0.181818182
     0.090909091     0.045454545     0.227272727
     0.136363636     0.000000000     0.227272727
     0.090909091     0.000000000     0.272727273
     0.090909091     0.045454545     0.318181818
     0.136363636     0.000000000     0.318181818
     0.090909091     0.000000000     0.363636364
     0.090909091     0.045454545     0.409090909
     0.136363636     0.045454545     0.363636364
     0.090909091     0.000000000     0.454545455
     0.090909091     0.045454545     0.500000000
     0.136363636     0.045454545     0.454545455
     0.090909091     0.045454545     0.590909091
     0.136363636     0.000000000     0.590909091
     0.090909091     0.000000000     0.636363636
     0.090909091     0.045454545     0.681818182
     0.136363636     0.000000000     0.681818182
     0.136363636     0.045454545     0.636363636
     0.090909091     0.000000000     0.727272727
     0.090909091     0.045454545     0.772727273
     0.136363636     0.000000000     0.772727273
     0.136363636     0.045454545     0.727272727
     0.090909091     0.000000000     0.818181818
     0.090909091     0.045454545     0.863636364
     0.136363636     0.000000000     0.863636364
     0.136363636     0.045454545     0.818181818
     0.090909091     0.000000000     0.909090909
     0.136363636     0.000000000     0.954545455
     0.136363636     0.045454545     0.909090909
     0.090909091     0.136363636     0.045454545
     0.090909091     0.090909091     0.090909091
     0.136363636     0.136363636     0.090909091
     0.090909091     0.090909091     0.181818182
     0.090909091     0.136363636     0.227272727
     0.136363636     0.090909091     0.227272727
     0.136363636     0.136363636     0.181818182
     0.090909091     0.090909091     0.272727273
     0.090909091     0.136363636     0.318181818
     0.136363636     0.090909091     0.318181818
     0.136363636     0.136363636     0.272727273
     0.090909091     0.090909091     0.363636364
     0.090909091     0.136363636     0.409090909
     0.136363636     0.090909091     0.409090909
     0.136363636     0.136363636     0.363636364
     0.090909091     0.090909091     0.454545455
     0.090909091     0.136363636     0.500000000
     0.136363636     0.090909091     0.500000000
     0.136363636     0.136363636     0.454545455
     0.090909091     0.090909091     0.545454545
     0.090909091     0.136363636     0.590909091
     0.136363636     0.090909091     0.590909091
     0.136363636     0.136363636     0.545454545
     0.090909091     0.090909091     0.636363636
     0.090909091     0.136363636     0.681818182
     0.136363636     0.090909091     0.681818182
     0.136363636     0.136363636     0.636363636
     0.090909091     0.090909091     0.727272727
     0.090909091     0.090909091     0.818181818
     0.090909091     0.136363636     0.863636364
     0.136363636     0.136363636     0.818181818
     0.090909091     0.090909091     0.909090909
     0.136363636     0.090909091     0.954545455
     0.136363636     0.136363636     0.909090909
     0.090909091     0.181818182     0.000000000
     0.090909091     0.227272727     0.045454545
     0.136363636     0.227272727     0.000000000
     0.090909091     0.181818182     0.090909091
     0.090909091     0.227272727     0.136363636
     0.136363636     0.181818182     0.136363636
     0.136363636     0.227272727     0.090909091
     0.090909091     0.227272727     0.227272727
     0.136363636     0.181818182     0.227272727
     0.136363636     0.227272727     0.181818182
     0.090909091     0.227272727     0.318181818
     0.136363636     0.181818182     0.318181818
     0.136363636     0.227272727     0.272727273
     0.090909091     0.181818182     0.363636364
     0.090909091     0.227272727     0.409090909
     0.136363636     0.227272727     0.363636364
     0.090909091     0.227272727     0.500000000
     0.136363636     0.181818182     0.500000000
     0.136363636     0.227272727     0.454545455
     0.136363636     0.181818182     0.590909091
     0.136363636     0.227272727     0.545454545
     0.090909091     0.181818182     0.636363636
     0.090909091     0.227272727     0.681818182
     0.136363636     0.181818182     0.681818182
     0.136363636     0.227272727     0.636363636
     0.090909091     0.227272727     0.772727273
     0.136363636     0.181818182     0.772727273
     0.136363636     0.227272727     0.727272727
     0.090909091     0.181818182     0.818181818
     0.090909091     0.227272727     0.863636364
     0.136363636     0.181818182     0.863636364
     0.136363636     0.227272727     0.818181818
     0.090909091     0.227272727     0.954545455
     0.136363636     0.227272727     0.909090909
     0.090909091     0.318181818     0.045454545
     0.136363636     0.272727273     0.045454545
     0.136363636     0.318181818     0.000000000
     0.090909091     0.318181818     0.136363636
     0.090909091     0.272727273     0.181818182
     0.090909091     0.318181818     0.227272727
     0.136363636     0.318181818     0.181818182
     0.090909091     0.272727273     0.272727273
     0.090909091     0.318181818     0.318181818
     0.136363636     0.272727273     0.318181818
     0.136363636     0.318181818     0.272727273
     0.090909091     0.318181818     0.409090909
     0.136363636     0.318181818     0.363636364
     0.090909091     0.272727273     0.454545455
     0.090909091     0.318181818     0.500000000
     0.136363636     0.272727273     0.500000000
     0.090909091     0.272727273     0.545454545
     0.090909091     0.318181818     0.590909091
     0.136363636     0.272727273     0.590909091
     0.136363636     0.318181818     0.545454545
     0.090909091     0.318181818     0.681818182
     0.090909091     0.272727273     0.727272727
     0.090909091     0.318181818     0.772727273
     0.136363636     0.272727273     0.772727273
     0.090909091     0.272727273     0.818181818
     0.090909091     0.318181818     0.863636364
     0.136363636     0.272727273     0.863636364
     0.136363636     0.318181818     0.818181818
     0.090909091     0.272727273     0.909090909
     0.090909091     0.318181818     0.954545455
     0.136363636     0.272727273     0.954545455
     0.136363636     0.318181818     0.909090909
     0.090909091     0.363636364     0.000000000
     0.136363636     0.363636364     0.045454545
     0.090909091     0.363636364     0.090909091
     0.090909091     0.409090909     0.136363636
     0.136363636     0.363636364     0.136363636
     0.090909091     0.363636364     0.181818182
     0.090909091     0.409090909     0.227272727
     0.136363636     0.363636364     0.227272727
     0.136363636     0.409090909     0.181818182
     0.090909091     0.363636364     0.272727273
     0.090909091     0.409090909     0.318181818
     0.136363636     0.409090909     0.272727273
     0.090909091     0.363636364     0.454545455
     0.090909091     0.409090909     0.500000000
     0.136363636     0.409090909     0.454545455
     0.090909091     0.409090909     0.590909091
     0.090909091     0.363636364     0.636363636
     0.090909091     0.409090909     0.681818182
     0.136363636     0.363636364     0.681818182
     0.136363636     0.409090909     0.636363636
     0.136363636     0.363636364     0.772727273
     0.136363636     0.409090909     0.727272727
     0.090909091     0.363636364     0.818181818
     0.090909091     0.409090909     0.863636364
     0.136363636     0.363636364     0.863636364
     0.136363636     0.409090909     0.818181818
     0.090909091     0.363636364     0.909090909
     0.090909091     0.409090909     0.954545455
     0.136363636     0.363636364     0.954545455
     0.136363636     0.409090909     0.909090909
     0.090909091     0.454545455     0.000000000
     0.090909091     0.500000000     0.045454545
     0.136363636     0.454545455     0.045454545
     0.090909091     0.454545455     0.090909091
     0.136363636     0.454545455     0.136363636
     0.136363636     0.500000000     0.090909091
     0.090909091     0.500000000     0.227272727
     0.136363636     0.454545455     0.227272727
     0.136363636     0.500000000     0.181818182
     0.090909091     0.454545455     0.272727273
     0.090909091     0.500000000     0.318181818
     0.136363636     0.454545455     0.318181818
     0.136363636     0.500000000     0.272727273
     0.090909091     0.454545455     0.363636364
     0.090909091     0.500000000     0.409090909
     0.136363636     0.500000000     0.363636364
     0.090909091     0.454545455     0.454545455
     0.136363636     0.454545455     0.500000000
     0.090909091     0.454545455     0.545454545
     0.090909091     0.500000000     0.590909091
     0.136363636     0.454545455     0.590909091
     0.090909091     0.454545455     0.636363636
     0.090909091     0.500000000     0.681818182
     0.136363636     0.454545455     0.681818182
     0.136363636     0.500000000     0.636363636
     0.090909091     0.454545455     0.727272727
     0.090909091     0.500000000     0.772727273
     0.136363636     0.500000000     0.727272727
     0.090909091     0.454545455     0.818181818
     0.090909091     0.500000000     0.863636364
     0.136363636     0.454545455     0.863636364
     0.136363636     0.500000000     0.818181818
     0.090909091     0.454545455     0.909090909
     0.090909091     0.500000000     0.954545455
     0.090909091     0.545454545     0.000000000
     0.136363636     0.545454545     0.045454545
     0.136363636     0.590909091     0.000000000
     0.090909091     0.545454545     0.090909091
     0.090909091     0.590909091     0.136363636
     0.136363636     0.545454545     0.136363636
     0.136363636     0.590909091     0.090909091
     0.090909091     0.545454545     0.181818182
     0.090909091     0.590909091     0.227272727
     0.136363636     0.545454545     0.227272727
     0.136363636     0.590909091     0.181818182
     0.090909091     0.590909091     0.318181818
     0.136363636     0.545454545     0.318181818
     0.136363636     0.590909091     0.272727273
     0.090909091     0.590909091     0.409090909
     0.136363636     0.545454545     0.409090909
     0.136363636     0.590909091     0.363636364
     0.090909091     0.590909091     0.500000000
     0.136363636     0.545454545     0.500000000
     0.136363636     0.590909091     0.454545455
     0.090909091     0.545454545     0.545454545
     0.090909091     0.590909091     0.590909091
     0.136363636     0.545454545     0.590909091
     0.136363636     0.590909091     0.545454545
     0.090909091     0.545454545     0.636363636
     0.090909091     0.590909091     0.681818182
     0.136363636     0.545454545     0.681818182
     0.136363636     0.545454545     0.772727273
     0.136363636     0.590909091     0.727272727
     0.090909091     0.545454545     0.818181818
     0.090909091     0.590909091     0.863636364
     0.136363636     0.545454545     0.863636364
     0.136363636     0.590909091     0.818181818
     0.090909091     0.590909091     0.954545455
     0.136363636     0.545454545     0.954545455
     0.090909091     0.636363636     0.000000000
     0.090909091     0.681818182     0.045454545
     0.136363636     0.681818182     0.000000000
     0.090909091     0.636363636     0.090909091
     0.090909091     0.681818182     0.227272727
     0.136363636     0.681818182     0.181818182
     0.090909091     0.636363636     0.272727273
     0.090909091     0.681818182     0.318181818
     0.136363636     0.636363636     0.318181818
     0.136363636     0.681818182     0.272727273
     0.090909091     0.636363636     0.363636364
     0.090909091     0.681818182     0.409090909
     0.136363636     0.636363636     0.409090909
     0.136363636     0.681818182     0.363636364
     0.090909091     0.681818182     0.500000000
     0.136363636     0.636363636     0.500000000
     0.136363636     0.681818182     0.454545455
     0.090909091     0.636363636     0.545454545
     0.090909091     0.681818182     0.590909091
     0.136363636     0.681818182     0.545454545
     0.090909091     0.681818182     0.681818182
     0.136363636     0.681818182     0.636363636
     0.090909091     0.636363636     0.727272727
     0.136363636     0.681818182     0.727272727
     0.090909091     0.636363636     0.818181818
     0.090909091     0.681818182     0.863636364
     0.136363636     0.681818182     0.818181818
     0.090909091     0.636363636     0.909090909
     0.090909091     0.681818182     0.954545455
     0.136363636     0.681818182     0.909090909
     0.090909091     0.727272727     0.000000000
     0.090909091     0.772727273     0.045454545
     0.136363636     0.727272727     0.045454545
     0.136363636     0.772727273     0.000000000
     0.090909091     0.727272727     0.090909091
     0.090909091     0.772727273     0.136363636
     0.136363636     0.727272727     0.136363636
     0.090909091     0.727272727     0.181818182
     0.090909091     0.772727273     0.227272727
     0.136363636     0.772727273     0.181818182
     0.090909091     0.727272727     0.272727273
     0.090909091     0.772727273     0.318181818
     0.136363636     0.772727273     0.272727273
     0.090909091     0.772727273     0.409090909
     0.136363636     0.727272727     0.409090909
     0.136363636     0.772727273     0.363636364
     0.090909091     0.772727273     0.500000000
     0.090909091     0.727272727     0.545454545
     0.090909091     0.772727273     0.590909091
     0.136363636     0.727272727     0.590909091
     0.090909091     0.727272727     0.636363636
     0.136363636     0.727272727     0.681818182
     0.136363636     0.727272727     0.772727273
     0.136363636     0.772727273     0.727272727
     0.090909091     0.727272727     0.818181818
     0.090909091     0.772727273     0.863636364
     0.136363636     0.772727273     0.818181818
     0.090909091     0.727272727     0.909090909
     0.090909091     0.772727273     0.954545455
     0.136363636     0.772727273     0.909090909
     0.090909091     0.863636364     0.045454545
     0.136363636     0.818181818     0.045454545
     0.136363636     0.863636364     0.000000000
     0.090909091     0.818181818     0.090909091
     0.136363636     0.818181818     0.136363636
     0.136363636     0.863636364     0.090909091
     0.090909091     0.818181818     0.181818182
     0.090909091     0.863636364     0.227272727
     0.136363636     0.818181818     0.227272727
     0.090909091     0.818181818     0.272727273
     0.090909091     0.863636364     0.318181818
     0.136363636     0.818181818     0.318181818
     0.090909091     0.818181818     0.363636364
     0.090909091     0.863636364     0.409090909
     0.136363636     0.863636364     0.363636364
     0.090909091     0.818181818     0.454545455
     0.090909091     0.863636364     0.500000000
     0.090909091     0.818181818     0.545454545
     0.090909091     0.863636364     0.590909091
     0.136363636     0.863636364     0.545454545
     0.090909091     0.818181818     0.636363636
     0.090909091     0.863636364     0.681818182
     0.136363636     0.818181818     0.681818182
     0.136363636     0.863636364     0.636363636
     0.090909091     0.818181818     0.727272727
     0.090909091     0.863636364     0.772727273
     0.136363636     0.818181818     0.772727273
     0.136363636     0.863636364     0.727272727
     0.090909091     0.818181818     0.818181818
     0.090909091     0.863636364     0.863636364
     0.136363636     0.818181818     0.863636364
     0.136363636     0.863636364     0.818181818
     0.090909091     0.818181818     0.909090909
     0.090909091     0.863636364     0.954545455
     0.136363636     0.818181818     0.954545455
     0.136363636     0.863636364     0.909090909
     0.136363636     0.909090909     0.045454545
     0.136363636     0.954545455     0.000000000
     0.090909091     0.954545455     0.136363636
     0.136363636     0.909090909     0.136363636
     0.136363636     0.954545455     0.090909091
     0.090909091     0.954545455     0.227272727
     0.136363636     0.909090909     0.227272727
     0.136363636     0.954545455     0.181818182
     0.090909091     0.909090909     0.272727273
     0.090909091     0.954545455     0.318181818
     0.136363636     0.909090909     0.318181818
     0.136363636     0.954545455     0.272727273
     0.090909091     0.954545455     0.409090909
     0.136363636     0.909090909     0.409090909
     0.136363636     0.954545455     0.363636364
     0.090909091     0.954545455     0.500000000
     0.136363636     0.909090909     0.500000000
     0.090909091     0.954545455     0.590909091
     0.136363636     0.954545455     0.545454545
     0.090909091     0.909090909     0.636363636
     0.090909091     0.954545455     0.681818182
     0.136363636     0.909090909     0.681818182
     0.136363636     0.909090909     0.772727273
     0.136363636     0.954545455     0.727272727
     0.136363636     0.909090909     0.863636364
     0.090909091     0.909090909     0.909090909
     0.090909091     0.954545455     0.954545455
     0.136363636     0.909090909     0.954545455
     0.136363636     0.954545455     0.909090909
     0.181818182     0.045454545     0.045454545
     0.227272727     0.000000000     0.045454545
     0.227272727     0.045454545     0.000000000
     0.181818182     0.000000000     0.090909091
     0.227272727     0.000000000     0.136363636
     0.227272727     0.045454545     0.090909091
     0.181818182     0.000000000     0.181818182
     0.227272727     0.000000000     0.227272727
     0.227272727     0.045454545     0.181818182
     0.181818182     0.045454545     0.318181818
     0.227272727     0.000000000     0.318181818
     0.227272727     0.045454545     0.272727273
     0.181818182     0.045454545     0.409090909
     0.227272727     0.000000000     0.409090909
     0.227272727     0.045454545     0.363636364
     0.181818182     0.045454545     0.500000000
     0.227272727     0.045454545     0.454545455
     0.181818182     0.000000000     0.545454545
     0.181818182     0.045454545     0.590909091
     0.227272727     0.000000000     0.590909091
     0.181818182     0.000000000     0.636363636
     0.181818182     0.045454545     0.681818182
     0.227272727     0.045454545     0.636363636
     0.181818182     0.000000000     0.727272727
     0.181818182     0.045454545     0.772727273
     0.227272727     0.000000000     0.772727273
     0.227272727     0.045454545     0.727272727
     0.181818182     0.045454545     0.863636364
     0.227272727     0.000000000     0.863636364
     0.227272727     0.045454545     0.818181818
     0.181818182     0.000000000     0.909090909
     0.181818182     0.045454545     0.954545455
     0.227272727     0.000000000     0.954545455
     0.181818182     0.090909091     0.000000000
     0.181818182     0.136363636     0.045454545
     0.227272727     0.090909091     0.045454545
     0.227272727     0.136363636     0.000000000
     0.181818182     0.136363636     0.136363636
     0.227272727     0.136363636     0.090909091
     0.181818182     0.090909091     0.181818182
     0.181818182     0.136363636     0.227272727
     0.227272727     0.090909091     0.227272727
     0.181818182     0.136363636     0.318181818
     0.227272727     0.090909091     0.318181818
     0.227272727     0.136363636     0.272727273
     0.181818182     0.090909091     0.363636364
     0.181818182     0.136363636     0.409090909
     0.227272727     0.136363636     0.363636364
     0.181818182     0.136363636     0.500000000
     0.227272727     0.090909091     0.500000000
     0.227272727     0.136363636     0.454545455
     0.181818182     0.090909091     0.545454545
     0.181818182     0.136363636     0.590909091
     0.227272727     0.090909091     0.590909091
     0.227272727     0.136363636     0.545454545
     0.181818182     0.090909091     0.636363636
     0.181818182     0.136363636     0.681818182
     0.227272727     0.136363636     0.636363636
     0.181818182     0.136363636     0.772727273
     0.227272727     0.136363636     0.727272727
     0.181818182     0.090909091     0.818181818
     0.181818182     0.136363636     0.863636364
     0.227272727     0.090909091     0.863636364
     0.227272727     0.136363636     0.818181818
     0.181818182     0.090909091     0.909090909
     0.181818182     0.136363636     0.954545455
     0.227272727     0.090909091     0.954545455
     0.227272727     0.136363636     0.909090909
     0.181818182     0.181818182     0.000000000
     0.227272727     0.181818182     0.045454545
     0.227272727     0.227272727     0.000000000
     0.181818182     0.181818182     0.090909091
     0.181818182     0.227272727     0.136363636
     0.181818182     0.181818182     0.181818182
     0.181818182     0.227272727     0.227272727
     0.227272727     0.181818182     0.227272727
     0.181818182     0.181818182     0.272727273
     0.227272727     0.227272727     0.272727273
     0.181818182     0.181818182     0.363636364
     0.181818182     0.227272727     0.409090909
     0.227272727     0.181818182     0.409090909
     0.227272727     0.227272727     0.363636364
     0.181818182     0.181818182     0.454545455
     0.181818182     0.227272727     0.500000000
     0.227272727     0.181818182     0.500000000
     0.181818182     0.181818182     0.545454545
     0.227272727     0.181818182     0.590909091
     0.227272727     0.227272727     0.545454545
     0.181818182     0.227272727     0.681818182
     0.181818182     0.181818182     0.727272727
     0.181818182     0.227272727     0.772727273
     0.227272727     0.181818182     0.772727273
     0.227272727     0.227272727     0.727272727
     0.181818182     0.181818182     0.818181818
     0.181818182     0.227272727     0.863636364
     0.227272727     0.181818182     0.863636364
     0.227272727     0.227272727     0.818181818
     0.181818182     0.181818182     0.909090909
     0.181818182     0.227272727     0.954545455
     0.227272727     0.181818182     0.954545455
     0.227272727     0.227272727     0.909090909
     0.181818182     0.272727273     0.000000000
     0.181818182     0.318181818     0.045454545
     0.227272727     0.272727273     0.045454545
     0.227272727     0.318181818     0.000000000
     0.181818182     0.272727273     0.090909091
     0.227272727     0.272727273     0.136363636
     0.227272727     0.318181818     0.090909091
     0.181818182     0.318181818     0.227272727
     0.227272727     0.272727273     0.227272727
     0.181818182     0.318181818     0.318181818
     0.227272727     0.272727273     0.318181818
     0.181818182     0.272727273     0.363636364
     0.227272727     0.272727273     0.409090909
     0.227272727     0.318181818     0.363636364
     0.181818182     0.272727273     0.454545455
     0.181818182     0.318181818     0.500000000
     0.227272727     0.272727273     0.500000000
     0.227272727     0.318181818     0.454545455
     0.227272727     0.272727273     0.590909091
     0.227272727     0.318181818     0.545454545
     0.181818182     0.272727273     0.636363636
     0.181818182     0.318181818     0.681818182
     0.227272727     0.272727273     0.681818182
     0.227272727     0.318181818     0.636363636
     0.181818182     0.272727273     0.727272727
     0.181818182     0.318181818     0.772727273
     0.227272727     0.318181818     0.727272727
     0.181818182     0.272727273     0.818181818
     0.181818182     0.318181818     0.863636364
     0.227272727     0.272727273     0.863636364
     0.181818182     0.272727273     0.909090909
     0.227272727     0.272727273     0.954545455
     0.181818182     0.409090909     0.045454545
     0.227272727     0.363636364     0.045454545
     0.181818182     0.363636364     0.090909091
     0.181818182     0.409090909     0.136363636
     0.227272727     0.363636364     0.136363636
     0.227272727     0.363636364     0.227272727
     0.181818182     0.409090909     0.318181818
     0.227272727     0.363636364     0.318181818
     0.227272727     0.409090909     0.272727273
     0.227272727     0.363636364     0.409090909
     0.227272727     0.409090909     0.363636364
     0.181818182     0.363636364     0.454545455
     0.181818182     0.409090909     0.500000000
     0.227272727     0.409090909     0.454545455
     0.181818182     0.363636364     0.545454545
     0.181818182     0.409090909     0.590909091
     0.227272727     0.363636364     0.590909091
     0.227272727     0.409090909     0.545454545
     0.181818182     0.409090909     0.681818182
     0.227272727     0.363636364     0.681818182
     0.227272727     0.409090909     0.636363636
     0.227272727     0.363636364     0.772727273
     0.181818182     0.363636364     0.818181818
     0.181818182     0.409090909     0.863636364
     0.227272727     0.409090909     0.818181818
     0.181818182     0.363636364     0.909090909
     0.181818182     0.409090909     0.954545455
     0.227272727     0.363636364     0.954545455
     0.227272727     0.409090909     0.909090909
     0.181818182     0.454545455     0.000000000
     0.227272727     0.454545455     0.045454545
     0.181818182     0.454545455     0.090909091
     0.181818182     0.500000000     0.136363636
     0.227272727     0.500000000     0.090909091
     0.181818182     0.454545455     0.181818182
     0.181818182     0.500000000     0.227272727
     0.227272727     0.500000000     0.181818182
     0.181818182     0.454545455     0.272727273
     0.181818182     0.500000000     0.318181818
     0.227272727     0.454545455     0.318181818
     0.227272727     0.500000000     0.272727273
     0.181818182     0.454545455     0.363636364
     0.181818182     0.500000000     0.409090909
     0.227272727     0.454545455     0.409090909
     0.181818182     0.500000000     0.500000000
     0.227272727     0.454545455     0.500000000
     0.181818182     0.454545455     0.545454545
     0.181818182     0.500000000     0.590909091
     0.227272727     0.500000000     0.545454545
     0.181818182     0.500000000     0.772727273
     0.227272727     0.454545455     0.772727273
     0.227272727     0.500000000     0.727272727
     0.181818182     0.500000000     0.863636364
     0.227272727     0.454545455     0.863636364
     0.227272727     0.500000000     0.818181818
     0.181818182     0.454545455     0.909090909
     0.181818182     0.500000000     0.954545455
     0.227272727     0.454545455     0.954545455
     0.181818182     0.545454545     0.000000000
     0.181818182     0.590909091     0.045454545
     0.227272727     0.590909091     0.000000000
     0.181818182     0.545454545     0.090909091
     0.181818182     0.590909091     0.136363636
     0.227272727     0.590909091     0.090909091
     0.181818182     0.545454545     0.181818182
     0.181818182     0.590909091     0.227272727
     0.227272727     0.545454545     0.227272727
     0.227272727     0.590909091     0.181818182
     0.181818182     0.590909091     0.318181818
     0.227272727     0.545454545     0.318181818
     0.227272727     0.590909091     0.272727273
     0.181818182     0.545454545     0.363636364
     0.227272727     0.590909091     0.363636364
     0.181818182     0.545454545     0.454545455
     0.181818182     0.590909091     0.500000000
     0.227272727     0.545454545     0.500000000
     0.181818182     0.590909091     0.590909091
     0.227272727     0.545454545     0.590909091
     0.227272727     0.590909091     0.545454545
     0.181818182     0.590909091     0.681818182
     0.227272727     0.590909091     0.636363636
     0.181818182     0.545454545     0.727272727
     0.181818182     0.590909091     0.772727273
     0.227272727     0.545454545     0.772727273
     0.227272727     0.590909091     0.727272727
     0.181818182     0.545454545     0.818181818
     0.227272727     0.590909091     0.818181818
     0.181818182     0.545454545     0.909090909
     0.181818182     0.590909091     0.954545455
     0.227272727     0.545454545     0.954545455
     0.227272727     0.590909091     0.909090909
     0.181818182     0.636363636     0.000000000
     0.181818182     0.681818182     0.045454545
     0.227272727     0.636363636     0.045454545
     0.181818182     0.636363636     0.090909091
     0.181818182     0.681818182     0.136363636
     0.227272727     0.681818182     0.090909091
     0.181818182     0.636363636     0.181818182
     0.181818182     0.681818182     0.227272727
     0.227272727     0.681818182     0.181818182
     0.181818182     0.681818182     0.318181818
     0.227272727     0.636363636     0.318181818
     0.227272727     0.681818182     0.272727273
     0.181818182     0.636363636     0.363636364
     0.181818182     0.681818182     0.409090909
     0.227272727     0.681818182     0.363636364
     0.181818182     0.681818182     0.500000000
     0.227272727     0.681818182     0.454545455
     0.227272727     0.636363636     0.590909091
     0.227272727     0.681818182     0.545454545
     0.181818182     0.636363636     0.636363636
     0.181818182     0.681818182     0.681818182
     0.227272727     0.636363636     0.681818182
     0.181818182     0.681818182     0.772727273
     0.227272727     0.636363636     0.772727273
     0.227272727     0.681818182     0.727272727
     0.181818182     0.636363636     0.818181818
     0.181818182     0.681818182     0.863636364
     0.227272727     0.636363636     0.863636364
     0.227272727     0.681818182     0.818181818
     0.181818182     0.636363636     0.909090909
     0.181818182     0.681818182     0.954545455
     0.181818182     0.727272727     0.000000000
     0.181818182     0.772727273     0.045454545
     0.227272727     0.727272727     0.045454545
     0.227272727     0.772727273     0.000000000
     0.181818182     0.727272727     0.090909091
     0.181818182     0.772727273     0.136363636
     0.227272727     0.727272727     0.136363636
     0.227272727     0.772727273     0.090909091
     0.181818182     0.772727273     0.227272727
     0.227272727     0.727272727     0.227272727
     0.227272727     0.772727273     0.181818182
     0.181818182     0.772727273     0.318181818
     0.227272727     0.727272727     0.318181818
     0.227272727     0.772727273     0.272727273
     0.181818182     0.772727273     0.409090909
     0.227272727     0.727272727     0.409090909
     0.181818182     0.772727273     0.500000000
     0.227272727     0.772727273     0.454545455
     0.181818182     0.727272727     0.545454545
     0.181818182     0.772727273     0.590909091
     0.227272727     0.727272727     0.590909091
     0.227272727     0.772727273     0.545454545
     0.181818182     0.727272727     0.636363636
     0.227272727     0.772727273     0.636363636
     0.181818182     0.727272727     0.727272727
     0.227272727     0.727272727     0.772727273
     0.181818182     0.727272727     0.818181818
     0.181818182     0.772727273     0.863636364
     0.227272727     0.727272727     0.954545455
     0.181818182     0.818181818     0.000000000
     0.181818182     0.863636364     0.045454545
     0.227272727     0.863636364     0.000000000
     0.181818182     0.818181818     0.090909091
     0.227272727     0.818181818     0.136363636
     0.227272727     0.863636364     0.090909091
     0.181818182     0.863636364     0.227272727
     0.227272727     0.818181818     0.227272727
     0.227272727     0.863636364     0.181818182
     0.181818182     0.863636364     0.318181818
     0.227272727     0.818181818     0.318181818
     0.227272727     0.863636364     0.272727273
     0.181818182     0.863636364     0.409090909
     0.227272727     0.818181818     0.409090909
     0.227272727     0.863636364     0.363636364
     0.181818182     0.818181818     0.454545455
     0.227272727     0.818181818     0.500000000
     0.227272727     0.863636364     0.454545455
     0.181818182     0.818181818     0.545454545
     0.227272727     0.863636364     0.545454545
     0.181818182     0.863636364     0.681818182
     0.227272727     0.818181818     0.681818182
     0.227272727     0.863636364     0.636363636
     0.181818182     0.818181818     0.727272727
     0.181818182     0.863636364     0.772727273
     0.227272727     0.818181818     0.772727273
     0.181818182     0.818181818     0.818181818
     0.181818182     0.863636364     0.863636364
     0.227272727     0.818181818     0.863636364
     0.227272727     0.863636364     0.818181818
     0.181818182     0.818181818     0.909090909
     0.181818182     0.863636364     0.954545455
     0.227272727     0.863636364     0.909090909
     0.181818182     0.909090909     0.000000000
     0.227272727     0.909090909     0.045454545
     0.227272727     0.954545455     0.000000000
     0.181818182     0.909090909     0.090909091
     0.181818182     0.954545455     0.136363636
     0.227272727     0.954545455     0.090909091
     0.227272727     0.909090909     0.227272727
     0.227272727     0.954545455     0.181818182
     0.181818182     0.909090909     0.272727273
     0.227272727     0.954545455     0.272727273
     0.181818182     0.909090909     0.363636364
     0.181818182     0.954545455     0.409090909
     0.227272727     0.909090909     0.409090909
     0.227272727     0.954545455     0.363636364
     0.181818182     0.954545455     0.500000000
     0.227272727     0.954545455     0.454545455
     0.181818182     0.909090909     0.545454545
     0.181818182     0.954545455     0.590909091
     0.227272727     0.909090909     0.590909091
     0.227272727     0.954545455     0.545454545
     0.181818182     0.909090909     0.636363636
     0.227272727     0.909090909     0.681818182
     0.181818182     0.909090909     0.727272727
     0.227272727     0.954545455     0.727272727
     0.227272727     0.909090909     0.863636364
     0.227272727     0.954545455     0.818181818
     0.227272727     0.954545455     0.909090909
     0.318181818     0.000000000     0.045454545
     0.318181818     0.045454545     0.000000000
     0.272727273     0.000000000     0.090909091
     0.318181818     0.000000000     0.136363636
     0.318181818     0.045454545     0.090909091
     0.272727273     0.000000000     0.181818182
     0.318181818     0.045454545     0.181818182
     0.272727273     0.000000000     0.272727273
     0.272727273     0.045454545     0.318181818
     0.318181818     0.000000000     0.318181818
     0.318181818     0.045454545     0.272727273
     0.272727273     0.000000000     0.363636364
     0.318181818     0.000000000     0.409090909
     0.318181818     0.045454545     0.363636364
     0.272727273     0.000000000     0.454545455
     0.318181818     0.000000000     0.500000000
     0.318181818     0.045454545     0.454545455
     0.272727273     0.000000000     0.545454545
     0.318181818     0.000000000     0.590909091
     0.318181818     0.045454545     0.545454545
     0.272727273     0.000000000     0.636363636
     0.318181818     0.000000000     0.681818182
     0.318181818     0.045454545     0.636363636
     0.272727273     0.000000000     0.727272727
     0.272727273     0.045454545     0.772727273
     0.272727273     0.000000000     0.818181818
     0.272727273     0.045454545     0.863636364
     0.318181818     0.000000000     0.863636364
     0.318181818     0.045454545     0.818181818
     0.272727273     0.000000000     0.909090909
     0.272727273     0.045454545     0.954545455
     0.318181818     0.000000000     0.954545455
     0.318181818     0.045454545     0.909090909
     0.272727273     0.090909091     0.000000000
     0.318181818     0.090909091     0.045454545
     0.272727273     0.090909091     0.090909091
     0.272727273     0.136363636     0.136363636
     0.318181818     0.090909091     0.136363636
     0.318181818     0.136363636     0.090909091
     0.272727273     0.090909091     0.181818182
     0.272727273     0.136363636     0.227272727
     0.318181818     0.090909091     0.227272727
     0.272727273     0.090909091     0.272727273
     0.272727273     0.136363636     0.318181818
     0.318181818     0.136363636     0.272727273
     0.272727273     0.090909091     0.363636364
     0.318181818     0.090909091     0.409090909
     0.318181818     0.136363636     0.363636364
     0.318181818     0.136363636     0.454545455
     0.272727273     0.136363636     0.590909091
     0.318181818     0.136363636     0.545454545
     0.272727273     0.090909091     0.636363636
     0.318181818     0.136363636     0.636363636
     0.272727273     0.090909091     0.727272727
     0.272727273     0.090909091     0.818181818
     0.272727273     0.136363636     0.863636364
     0.318181818     0.136363636     0.818181818
     0.272727273     0.090909091     0.909090909
     0.272727273     0.136363636     0.954545455
     0.318181818     0.090909091     0.954545455
     0.272727273     0.181818182     0.000000000
     0.272727273     0.227272727     0.045454545
     0.318181818     0.181818182     0.045454545
     0.318181818     0.227272727     0.000000000
     0.272727273     0.181818182     0.090909091
     0.272727273     0.227272727     0.136363636
     0.318181818     0.181818182     0.136363636
     0.272727273     0.227272727     0.227272727
     0.318181818     0.181818182     0.227272727
     0.318181818     0.227272727     0.181818182
     0.272727273     0.181818182     0.272727273
     0.272727273     0.227272727     0.318181818
     0.318181818     0.181818182     0.318181818
     0.272727273     0.181818182     0.363636364
     0.272727273     0.227272727     0.409090909
     0.318181818     0.181818182     0.409090909
     0.318181818     0.227272727     0.363636364
     0.272727273     0.181818182     0.454545455
     0.272727273     0.227272727     0.500000000
     0.318181818     0.181818182     0.500000000
     0.318181818     0.227272727     0.454545455
     0.272727273     0.181818182     0.545454545
     0.272727273     0.227272727     0.590909091
     0.318181818     0.181818182     0.590909091
     0.318181818     0.227272727     0.545454545
     0.272727273     0.181818182     0.636363636
     0.272727273     0.227272727     0.772727273
     0.318181818     0.181818182     0.772727273
     0.318181818     0.227272727     0.727272727
     0.272727273     0.181818182     0.818181818
     0.318181818     0.181818182     0.863636364
     0.272727273     0.181818182     0.909090909
     0.272727273     0.227272727     0.954545455
     0.318181818     0.181818182     0.954545455
     0.272727273     0.272727273     0.000000000
     0.272727273     0.318181818     0.045454545
     0.318181818     0.272727273     0.045454545
     0.318181818     0.318181818     0.000000000
     0.272727273     0.272727273     0.090909091
     0.272727273     0.318181818     0.136363636
     0.318181818     0.272727273     0.136363636
     0.272727273     0.272727273     0.181818182
     0.318181818     0.272727273     0.227272727
     0.272727273     0.272727273     0.272727273
     0.318181818     0.272727273     0.318181818
     0.318181818     0.318181818     0.272727273
     0.272727273     0.272727273     0.363636364
     0.272727273     0.318181818     0.409090909
     0.318181818     0.272727273     0.409090909
     0.272727273     0.318181818     0.500000000
     0.318181818     0.318181818     0.454545455
     0.272727273     0.272727273     0.545454545
     0.272727273     0.318181818     0.590909091
     0.272727273     0.272727273     0.636363636
     0.272727273     0.318181818     0.681818182
     0.318181818     0.272727273     0.681818182
     0.272727273     0.272727273     0.727272727
     0.318181818     0.272727273     0.772727273
     0.318181818     0.318181818     0.727272727
     0.318181818     0.272727273     0.863636364
     0.318181818     0.318181818     0.818181818
     0.272727273     0.272727273     0.909090909
     0.272727273     0.318181818     0.954545455
     0.318181818     0.318181818     0.909090909
     0.272727273     0.363636364     0.000000000
     0.272727273     0.409090909     0.045454545
     0.318181818     0.363636364     0.045454545
     0.318181818     0.409090909     0.000000000
     0.272727273     0.363636364     0.090909091
     0.272727273     0.409090909     0.136363636
     0.318181818     0.363636364     0.136363636
     0.272727273     0.363636364     0.181818182
     0.318181818     0.409090909     0.181818182
     0.272727273     0.363636364     0.272727273
     0.318181818     0.409090909     0.272727273
     0.272727273     0.363636364     0.363636364
     0.318181818     0.363636364     0.409090909
     0.318181818     0.363636364     0.500000000
     0.318181818     0.409090909     0.454545455
     0.272727273     0.363636364     0.545454545
     0.272727273     0.409090909     0.590909091
     0.318181818     0.363636364     0.590909091
     0.272727273     0.363636364     0.636363636
     0.318181818     0.363636364     0.681818182
     0.272727273     0.409090909     0.772727273
     0.318181818     0.363636364     0.772727273
     0.318181818     0.409090909     0.727272727
     0.272727273     0.409090909     0.863636364
     0.318181818     0.363636364     0.863636364
     0.318181818     0.409090909     0.818181818
     0.272727273     0.363636364     0.909090909
     0.272727273     0.409090909     0.954545455
     0.318181818     0.409090909     0.909090909
     0.272727273     0.454545455     0.000000000
     0.272727273     0.500000000     0.045454545
     0.318181818     0.500000000     0.000000000
     0.272727273     0.454545455     0.090909091
     0.272727273     0.500000000     0.136363636
     0.318181818     0.454545455     0.136363636
     0.318181818     0.500000000     0.090909091
     0.272727273     0.454545455     0.181818182
     0.272727273     0.500000000     0.227272727
     0.318181818     0.454545455     0.227272727
     0.272727273     0.454545455     0.272727273
     0.272727273     0.500000000     0.318181818
     0.318181818     0.454545455     0.318181818
     0.318181818     0.500000000     0.272727273
     0.272727273     0.454545455     0.363636364
     0.272727273     0.500000000     0.409090909
     0.318181818     0.454545455     0.409090909
     0.318181818     0.500000000     0.363636364
     0.272727273     0.454545455     0.454545455
     0.318181818     0.454545455     0.500000000
     0.318181818     0.500000000     0.454545455
     0.272727273     0.454545455     0.545454545
     0.318181818     0.454545455     0.590909091
     0.318181818     0.500000000     0.545454545
     0.272727273     0.454545455     0.636363636
     0.318181818     0.454545455     0.681818182
     0.272727273     0.454545455     0.727272727
     0.272727273     0.500000000     0.772727273
     0.318181818     0.454545455     0.772727273
     0.318181818     0.500000000     0.727272727
     0.272727273     0.454545455     0.818181818
     0.272727273     0.500000000     0.863636364
     0.272727273     0.454545455     0.909090909
     0.272727273     0.500000000     0.954545455
     0.318181818     0.454545455     0.954545455
     0.318181818     0.500000000     0.909090909
     0.272727273     0.545454545     0.000000000
     0.272727273     0.590909091     0.045454545
     0.318181818     0.590909091     0.000000000
     0.272727273     0.545454545     0.090909091
     0.272727273     0.590909091     0.136363636
     0.318181818     0.545454545     0.136363636
     0.318181818     0.590909091     0.090909091
     0.272727273     0.545454545     0.181818182
     0.272727273     0.590909091     0.227272727
     0.272727273     0.545454545     0.272727273
     0.272727273     0.590909091     0.318181818
     0.318181818     0.545454545     0.318181818
     0.318181818     0.590909091     0.272727273
     0.272727273     0.545454545     0.363636364
     0.272727273     0.590909091     0.409090909
     0.318181818     0.545454545     0.409090909
     0.318181818     0.590909091     0.363636364
     0.272727273     0.545454545     0.454545455
     0.318181818     0.590909091     0.454545455
     0.272727273     0.545454545     0.545454545
     0.272727273     0.590909091     0.590909091
     0.318181818     0.545454545     0.590909091
     0.272727273     0.545454545     0.636363636
     0.272727273     0.590909091     0.681818182
     0.318181818     0.545454545     0.681818182
     0.318181818     0.590909091     0.636363636
     0.272727273     0.545454545     0.727272727
     0.272727273     0.590909091     0.772727273
     0.318181818     0.545454545     0.772727273
     0.318181818     0.590909091     0.727272727
     0.272727273     0.545454545     0.818181818
     0.318181818     0.590909091     0.818181818
     0.272727273     0.545454545     0.909090909
     0.272727273     0.590909091     0.954545455
     0.272727273     0.636363636     0.000000000
     0.272727273     0.681818182     0.045454545
     0.318181818     0.636363636     0.045454545
     0.272727273     0.636363636     0.090909091
     0.272727273     0.681818182     0.136363636
     0.318181818     0.636363636     0.136363636
     0.318181818     0.681818182     0.090909091
     0.272727273     0.636363636     0.181818182
     0.272727273     0.681818182     0.227272727
     0.318181818     0.681818182     0.181818182
     0.272727273     0.636363636     0.272727273
     0.272727273     0.681818182     0.318181818
     0.318181818     0.636363636     0.318181818
     0.318181818     0.681818182     0.272727273
     0.272727273     0.681818182     0.409090909
     0.318181818     0.636363636     0.409090909
     0.318181818     0.681818182     0.363636364
     0.272727273     0.636363636     0.454545455
     0.272727273     0.681818182     0.500000000
     0.318181818     0.636363636     0.500000000
     0.318181818     0.681818182     0.454545455
     0.272727273     0.636363636     0.545454545
     0.272727273     0.681818182     0.590909091
     0.318181818     0.636363636     0.590909091
     0.318181818     0.681818182     0.545454545
     0.272727273     0.636363636     0.636363636
     0.318181818     0.636363636     0.681818182
     0.318181818     0.681818182     0.636363636
     0.272727273     0.636363636     0.727272727
     0.272727273     0.681818182     0.772727273
     0.318181818     0.636363636     0.772727273
     0.318181818     0.681818182     0.727272727
     0.272727273     0.636363636     0.818181818
     0.272727273     0.681818182     0.863636364
     0.318181818     0.636363636     0.863636364
     0.318181818     0.681818182     0.818181818
     0.272727273     0.636363636     0.909090909
     0.272727273     0.681818182     0.954545455
     0.318181818     0.636363636     0.954545455
     0.318181818     0.681818182     0.909090909
     0.272727273     0.772727273     0.045454545
     0.272727273     0.727272727     0.090909091
     0.272727273     0.772727273     0.136363636
     0.272727273     0.727272727     0.181818182
     0.272727273     0.772727273     0.227272727
     0.318181818     0.727272727     0.227272727
     0.318181818     0.772727273     0.181818182
     0.272727273     0.727272727     0.272727273
     0.272727273     0.772727273     0.318181818
     0.318181818     0.727272727     0.318181818
     0.318181818     0.772727273     0.272727273
     0.272727273     0.727272727     0.363636364
     0.272727273     0.772727273     0.409090909
     0.318181818     0.727272727     0.409090909
     0.318181818     0.772727273     0.363636364
     0.272727273     0.727272727     0.454545455
     0.272727273     0.772727273     0.500000000
     0.318181818     0.727272727     0.500000000
     0.318181818     0.772727273     0.454545455
     0.272727273     0.772727273     0.590909091
     0.318181818     0.727272727     0.590909091
     0.318181818     0.772727273     0.545454545
     0.272727273     0.727272727     0.636363636
     0.272727273     0.772727273     0.681818182
     0.318181818     0.727272727     0.681818182
     0.272727273     0.727272727     0.727272727
     0.272727273     0.772727273     0.772727273
     0.272727273     0.727272727     0.818181818
     0.272727273     0.772727273     0.863636364
     0.318181818     0.727272727     0.863636364
     0.318181818     0.772727273     0.818181818
     0.272727273     0.727272727     0.909090909
     0.318181818     0.727272727     0.954545455
     0.318181818     0.772727273     0.909090909
     0.272727273     0.818181818     0.000000000
     0.272727273     0.863636364     0.045454545
     0.318181818     0.818181818     0.045454545
     0.272727273     0.818181818     0.090909091
     0.318181818     0.818181818     0.136363636
     0.318181818     0.863636364     0.090909091
     0.272727273     0.818181818     0.181818182
     0.272727273     0.863636364     0.227272727
     0.318181818     0.818181818     0.227272727
     0.318181818     0.863636364     0.181818182
     0.272727273     0.818181818     0.272727273
     0.272727273     0.863636364     0.318181818
     0.318181818     0.818181818     0.318181818
     0.318181818     0.863636364     0.272727273
     0.272727273     0.818181818     0.363636364
     0.272727273     0.863636364     0.409090909
     0.318181818     0.863636364     0.363636364
     0.272727273     0.818181818     0.454545455
     0.272727273     0.863636364     0.500000000
     0.318181818     0.818181818     0.500000000
     0.318181818     0.863636364     0.454545455
     0.272727273     0.818181818     0.545454545
     0.272727273     0.863636364     0.590909091
     0.318181818     0.818181818     0.590909091
     0.318181818     0.863636364     0.545454545
     0.272727273     0.863636364     0.681818182
     0.318181818     0.818181818     0.681818182
     0.318181818     0.863636364     0.636363636
     0.272727273     0.818181818     0.727272727
     0.272727273     0.863636364     0.772727273
     0.272727273     0.818181818     0.818181818
     0.272727273     0.863636364     0.863636364
     0.318181818     0.818181818     0.863636364
     0.272727273     0.818181818     0.909090909
     0.272727273     0.863636364     0.954545455
     0.318181818     0.818181818     0.954545455
     0.318181818     0.863636364     0.909090909
     0.272727273     0.954545455     0.045454545
     0.318181818     0.909090909     0.045454545
     0.318181818     0.954545455     0.000000000
     0.272727273     0.909090909     0.090909091
     0.272727273     0.954545455     0.136363636
     0.318181818     0.954545455     0.090909091
     0.318181818     0.909090909     0.227272727
     0.318181818     0.954545455     0.181818182
     0.272727273     0.909090909     0.272727273
     0.272727273     0.954545455     0.318181818
     0.318181818     0.909090909     0.318181818
     0.318181818     0.954545455     0.272727273
     0.272727273     0.954545455     0.409090909
     0.318181818     0.909090909     0.409090909
     0.318181818     0.954545455     0.363636364
     0.272727273     0.909090909     0.454545455
     0.272727273     0.954545455     0.500000000
     0.318181818     0.909090909     0.500000000
     0.272727273     0.954545455     0.590909091
     0.318181818     0.909090909     0.590909091
     0.318181818     0.954545455     0.545454545
     0.272727273     0.954545455     0.681818182
     0.272727273     0.909090909     0.727272727
     0.318181818     0.954545455     0.727272727
     0.272727273     0.909090909     0.818181818
     0.318181818     0.954545455     0.818181818
     0.272727273     0.954545455     0.954545455
     0.318181818     0.954545455     0.909090909
     0.363636364     0.000000000     0.000000000
     0.363636364     0.045454545     0.045454545
     0.409090909     0.000000000     0.045454545
     0.363636364     0.000000000     0.090909091
     0.363636364     0.045454545     0.136363636
     0.409090909     0.000000000     0.136363636
     0.409090909     0.045454545     0.090909091
     0.363636364     0.000000000     0.181818182
     0.363636364     0.045454545     0.227272727
     0.409090909     0.000000000     0.227272727
     0.409090909     0.045454545     0.181818182
     0.363636364     0.000000000     0.272727273
     0.363636364     0.045454545     0.318181818
     0.409090909     0.000000000     0.318181818
     0.363636364     0.000000000     0.454545455
     0.363636364     0.045454545     0.500000000
     0.409090909     0.000000000     0.500000000
     0.363636364     0.000000000     0.545454545
     0.409090909     0.000000000     0.590909091
     0.409090909     0.045454545     0.545454545
     0.363636364     0.045454545     0.681818182
     0.409090909     0.000000000     0.681818182
     0.363636364     0.000000000     0.727272727
     0.409090909     0.045454545     0.727272727
     0.363636364     0.000000000     0.818181818
     0.409090909     0.000000000     0.863636364
     0.409090909     0.045454545     0.818181818
     0.363636364     0.000000000     0.909090909
     0.363636364     0.045454545     0.954545455
     0.363636364     0.090909091     0.000000000
     0.363636364     0.136363636     0.045454545
     0.409090909     0.090909091     0.045454545
     0.409090909     0.136363636     0.000000000
     0.363636364     0.090909091     0.090909091
     0.363636364     0.136363636     0.136363636
     0.409090909     0.090909091     0.136363636
     0.409090909     0.136363636     0.090909091
     0.363636364     0.136363636     0.227272727
     0.409090909     0.136363636     0.181818182
     0.363636364     0.136363636     0.318181818
     0.409090909     0.136363636     0.272727273
     0.363636364     0.090909091     0.363636364
     0.363636364     0.136363636     0.409090909
     0.409090909     0.090909091     0.409090909
     0.409090909     0.136363636     0.363636364
     0.363636364     0.090909091     0.454545455
     0.363636364     0.136363636     0.500000000
     0.409090909     0.090909091     0.500000000
     0.409090909     0.136363636     0.454545455
     0.363636364     0.090909091     0.545454545
     0.363636364     0.136363636     0.590909091
     0.409090909     0.090909091     0.590909091
     0.409090909     0.136363636     0.545454545
     0.363636364     0.090909091     0.636363636
     0.363636364     0.136363636     0.681818182
     0.409090909     0.090909091     0.681818182
     0.409090909     0.136363636     0.636363636
     0.363636364     0.136363636     0.772727273
     0.409090909     0.090909091     0.772727273
     0.409090909     0.136363636     0.727272727
     0.409090909     0.136363636     0.818181818
     0.363636364     0.090909091     0.909090909
     0.409090909     0.090909091     0.954545455
     0.409090909     0.136363636     0.909090909
     0.363636364     0.181818182     0.000000000
     0.409090909     0.181818182     0.045454545
     0.363636364     0.181818182     0.090909091
     0.363636364     0.227272727     0.136363636
     0.409090909     0.181818182     0.136363636
     0.409090909     0.227272727     0.090909091
     0.363636364     0.181818182     0.181818182
     0.363636364     0.227272727     0.227272727
     0.363636364     0.227272727     0.318181818
     0.409090909     0.181818182     0.318181818
     0.409090909     0.227272727     0.272727273
     0.363636364     0.227272727     0.409090909
     0.409090909     0.181818182     0.409090909
     0.363636364     0.181818182     0.454545455
     0.363636364     0.227272727     0.500000000
     0.409090909     0.181818182     0.500000000
     0.409090909     0.227272727     0.454545455
     0.363636364     0.181818182     0.545454545
     0.363636364     0.227272727     0.590909091
     0.409090909     0.227272727     0.545454545
     0.363636364     0.181818182     0.636363636
     0.409090909     0.181818182     0.681818182
     0.409090909     0.227272727     0.636363636
     0.363636364     0.181818182     0.727272727
     0.363636364     0.227272727     0.772727273
     0.409090909     0.181818182     0.772727273
     0.363636364     0.181818182     0.818181818
     0.363636364     0.227272727     0.863636364
     0.409090909     0.181818182     0.863636364
     0.409090909     0.227272727     0.818181818
     0.363636364     0.227272727     0.954545455
     0.409090909     0.181818182     0.954545455
     0.363636364     0.272727273     0.000000000
     0.409090909     0.272727273     0.045454545
     0.409090909     0.318181818     0.000000000
     0.363636364     0.272727273     0.090909091
     0.363636364     0.318181818     0.136363636
     0.409090909     0.272727273     0.136363636
     0.409090909     0.318181818     0.090909091
     0.363636364     0.272727273     0.181818182
     0.363636364     0.318181818     0.227272727
     0.409090909     0.272727273     0.227272727
     0.409090909     0.318181818     0.181818182
     0.363636364     0.272727273     0.272727273
     0.363636364     0.318181818     0.318181818
     0.409090909     0.272727273     0.318181818
     0.409090909     0.318181818     0.272727273
     0.363636364     0.272727273     0.363636364
     0.409090909     0.272727273     0.409090909
     0.409090909     0.318181818     0.363636364
     0.363636364     0.272727273     0.454545455
     0.363636364     0.318181818     0.500000000
     0.409090909     0.272727273     0.500000000
     0.409090909     0.318181818     0.454545455
     0.363636364     0.272727273     0.545454545
     0.409090909     0.318181818     0.545454545
     0.363636364     0.272727273     0.636363636
     0.363636364     0.318181818     0.681818182
     0.409090909     0.272727273     0.681818182
     0.409090909     0.318181818     0.636363636
     0.363636364     0.272727273     0.727272727
     0.363636364     0.318181818     0.772727273
     0.409090909     0.272727273     0.772727273
     0.363636364     0.272727273     0.818181818
     0.363636364     0.318181818     0.863636364
     0.409090909     0.318181818     0.818181818
     0.363636364     0.272727273     0.909090909
     0.363636364     0.318181818     0.954545455
     0.409090909     0.318181818     0.909090909
     0.363636364     0.363636364     0.000000000
     0.363636364     0.409090909     0.045454545
     0.363636364     0.409090909     0.136363636
     0.409090909     0.363636364     0.136363636
     0.409090909     0.409090909     0.090909091
     0.363636364     0.363636364     0.181818182
     0.363636364     0.409090909     0.227272727
     0.363636364     0.363636364     0.272727273
     0.363636364     0.409090909     0.318181818
     0.409090909     0.363636364     0.318181818
     0.409090909     0.409090909     0.272727273
     0.363636364     0.363636364     0.363636364
     0.409090909     0.363636364     0.409090909
     0.409090909     0.409090909     0.363636364
     0.363636364     0.363636364     0.454545455
     0.363636364     0.409090909     0.500000000
     0.409090909     0.363636364     0.500000000
     0.409090909     0.409090909     0.454545455
     0.363636364     0.363636364     0.545454545
     0.363636364     0.409090909     0.590909091
     0.409090909     0.363636364     0.590909091
     0.409090909     0.409090909     0.545454545
     0.363636364     0.409090909     0.681818182
     0.409090909     0.363636364     0.681818182
     0.363636364     0.363636364     0.727272727
     0.363636364     0.409090909     0.772727273
     0.409090909     0.363636364     0.772727273
     0.409090909     0.409090909     0.727272727
     0.363636364     0.363636364     0.818181818
     0.363636364     0.409090909     0.863636364
     0.409090909     0.409090909     0.818181818
     0.363636364     0.363636364     0.909090909
     0.363636364     0.409090909     0.954545455
     0.363636364     0.454545455     0.000000000
     0.363636364     0.500000000     0.045454545
     0.409090909     0.454545455     0.045454545
     0.409090909     0.500000000     0.000000000
     0.409090909     0.454545455     0.136363636
     0.409090909     0.500000000     0.090909091
     0.363636364     0.500000000     0.227272727
     0.409090909     0.454545455     0.227272727
     0.409090909     0.500000000     0.181818182
     0.363636364     0.454545455     0.272727273
     0.363636364     0.500000000     0.318181818
     0.409090909     0.454545455     0.318181818
     0.409090909     0.500000000     0.272727273
     0.363636364     0.500000000     0.409090909
     0.409090909     0.454545455     0.409090909
     0.409090909     0.500000000     0.363636364
     0.363636364     0.454545455     0.454545455
     0.409090909     0.500000000     0.454545455
     0.363636364     0.454545455     0.545454545
     0.409090909     0.454545455     0.590909091
     0.363636364     0.500000000     0.681818182
     0.409090909     0.454545455     0.681818182
     0.363636364     0.454545455     0.727272727
     0.363636364     0.500000000     0.772727273
     0.409090909     0.500000000     0.727272727
     0.363636364     0.454545455     0.818181818
     0.363636364     0.500000000     0.863636364
     0.409090909     0.454545455     0.863636364
     0.363636364     0.500000000     0.954545455
     0.409090909     0.454545455     0.954545455
     0.409090909     0.500000000     0.909090909
     0.363636364     0.590909091     0.045454545
     0.409090909     0.545454545     0.045454545
     0.409090909     0.590909091     0.000000000
     0.363636364     0.545454545     0.090909091
     0.363636364     0.590909091     0.136363636
     0.409090909     0.545454545     0.136363636
     0.409090909     0.590909091     0.090909091
     0.363636364     0.545454545     0.181818182
     0.363636364     0.590909091     0.227272727
     0.409090909     0.545454545     0.227272727
     0.409090909     0.590909091     0.181818182
     0.363636364     0.590909091     0.318181818
     0.409090909     0.590909091     0.272727273
     0.363636364     0.590909091     0.409090909
     0.409090909     0.545454545     0.409090909
     0.409090909     0.590909091     0.363636364
     0.363636364     0.545454545     0.454545455
     0.363636364     0.590909091     0.500000000
     0.409090909     0.545454545     0.500000000
     0.409090909     0.590909091     0.454545455
     0.363636364     0.590909091     0.590909091
     0.409090909     0.545454545     0.590909091
     0.363636364     0.545454545     0.636363636
     0.363636364     0.590909091     0.681818182
     0.409090909     0.545454545     0.681818182
     0.409090909     0.590909091     0.636363636
     0.363636364     0.545454545     0.727272727
     0.409090909     0.545454545     0.772727273
     0.363636364     0.545454545     0.818181818
     0.363636364     0.590909091     0.863636364
     0.409090909     0.545454545     0.863636364
     0.409090909     0.590909091     0.818181818
     0.363636364     0.590909091     0.954545455
     0.409090909     0.545454545     0.954545455
     0.363636364     0.636363636     0.000000000
     0.363636364     0.681818182     0.045454545
     0.409090909     0.636363636     0.045454545
     0.409090909     0.681818182     0.000000000
     0.363636364     0.636363636     0.090909091
     0.409090909     0.636363636     0.136363636
     0.363636364     0.681818182     0.227272727
     0.409090909     0.636363636     0.227272727
     0.409090909     0.681818182     0.181818182
     0.363636364     0.636363636     0.272727273
     0.409090909     0.636363636     0.318181818
     0.409090909     0.681818182     0.272727273
     0.363636364     0.681818182     0.409090909
     0.409090909     0.636363636     0.409090909
     0.409090909     0.681818182     0.363636364
     0.363636364     0.636363636     0.454545455
     0.363636364     0.681818182     0.500000000
     0.409090909     0.681818182     0.454545455
     0.363636364     0.636363636     0.545454545
     0.363636364     0.681818182     0.590909091
     0.409090909     0.636363636     0.590909091
     0.363636364     0.636363636     0.636363636
     0.363636364     0.681818182     0.681818182
     0.409090909     0.636363636     0.681818182
     0.409090909     0.681818182     0.636363636
     0.409090909     0.636363636     0.772727273
     0.363636364     0.681818182     0.863636364
     0.363636364     0.636363636     0.909090909
     0.409090909     0.681818182     0.909090909
     0.363636364     0.727272727     0.000000000
     0.409090909     0.727272727     0.045454545
     0.363636364     0.727272727     0.090909091
     0.363636364     0.772727273     0.136363636
     0.409090909     0.727272727     0.136363636
     0.363636364     0.772727273     0.227272727
     0.409090909     0.727272727     0.227272727
     0.409090909     0.772727273     0.181818182
     0.363636364     0.772727273     0.318181818
     0.409090909     0.727272727     0.318181818
     0.363636364     0.727272727     0.363636364
     0.409090909     0.727272727     0.409090909
     0.409090909     0.772727273     0.363636364
     0.363636364     0.727272727     0.454545455
     0.409090909     0.727272727     0.500000000
     0.409090909     0.772727273     0.454545455
     0.363636364     0.727272727     0.545454545
     0.409090909     0.727272727     0.590909091
     0.409090909     0.772727273     0.545454545
     0.363636364     0.727272727     0.636363636
     0.363636364     0.727272727     0.727272727
     0.409090909     0.727272727     0.772727273
     0.409090909     0.772727273     0.727272727
     0.363636364     0.772727273     0.863636364
     0.363636364     0.772727273     0.954545455
     0.409090909     0.727272727     0.954545455
     0.409090909     0.772727273     0.909090909
     0.363636364     0.818181818     0.000000000
     0.363636364     0.863636364     0.045454545
     0.409090909     0.863636364     0.000000000
     0.363636364     0.818181818     0.090909091
     0.363636364     0.863636364     0.136363636
     0.409090909     0.818181818     0.136363636
     0.409090909     0.863636364     0.090909091
     0.363636364     0.863636364     0.227272727
     0.409090909     0.863636364     0.181818182
     0.363636364     0.818181818     0.272727273
     0.363636364     0.863636364     0.318181818
     0.409090909     0.818181818     0.318181818
     0.363636364     0.818181818     0.363636364
     0.409090909     0.818181818     0.409090909
     0.409090909     0.863636364     0.363636364
     0.363636364     0.863636364     0.500000000
     0.409090909     0.863636364     0.454545455
     0.363636364     0.863636364     0.590909091
     0.409090909     0.863636364     0.545454545
     0.363636364     0.818181818     0.636363636
     0.363636364     0.863636364     0.681818182
     0.409090909     0.818181818     0.681818182
     0.363636364     0.818181818     0.727272727
     0.409090909     0.818181818     0.772727273
     0.363636364     0.818181818     0.818181818
     0.363636364     0.863636364     0.863636364
     0.409090909     0.818181818     0.863636364
     0.409090909     0.863636364     0.818181818
     0.363636364     0.818181818     0.909090909
     0.363636364     0.863636364     0.954545455
     0.409090909     0.863636364     0.909090909
     0.363636364     0.909090909     0.000000000
     0.409090909     0.909090909     0.045454545
     0.409090909     0.954545455     0.000000000
     0.409090909     0.909090909     0.136363636
     0.409090909     0.954545455     0.090909091
     0.363636364     0.909090909     0.181818182
     0.409090909     0.909090909     0.227272727
     0.409090909     0.954545455     0.181818182
     0.363636364     0.909090909     0.272727273
     0.363636364     0.954545455     0.318181818
     0.409090909     0.909090909     0.318181818
     0.363636364     0.909090909     0.363636364
     0.409090909     0.909090909     0.409090909
     0.409090909     0.954545455     0.363636364
     0.363636364     0.909090909     0.454545455
     0.363636364     0.954545455     0.500000000
     0.363636364     0.909090909     0.545454545
     0.363636364     0.954545455     0.590909091
     0.409090909     0.909090909     0.590909091
     0.363636364     0.954545455     0.681818182
     0.409090909     0.954545455     0.636363636
     0.363636364     0.954545455     0.772727273
     0.409090909     0.909090909     0.772727273
     0.409090909     0.954545455     0.727272727
     0.363636364     0.909090909     0.818181818
     0.409090909     0.909090909     0.863636364
     0.409090909     0.954545455     0.818181818
     0.363636364     0.909090909     0.909090909
     0.363636364     0.954545455     0.954545455
     0.409090909     0.909090909     0.954545455
     0.409090909     0.954545455     0.909090909
     0.454545455     0.000000000     0.090909091
     0.454545455     0.045454545     0.136363636
     0.500000000     0.000000000     0.136363636
     0.500000000     0.045454545     0.090909091
     0.454545455     0.000000000     0.181818182
     0.454545455     0.045454545     0.227272727
     0.500000000     0.000000000     0.227272727
     0.500000000     0.045454545     0.181818182
     0.454545455     0.000000000     0.272727273
     0.454545455     0.045454545     0.318181818
     0.500000000     0.000000000     0.318181818
     0.500000000     0.045454545     0.272727273
     0.454545455     0.000000000     0.363636364
     0.454545455     0.045454545     0.409090909
     0.500000000     0.000000000     0.409090909
     0.500000000     0.045454545     0.363636364
     0.454545455     0.000000000     0.454545455
     0.454545455     0.045454545     0.500000000
     0.500000000     0.000000000     0.500000000
     0.500000000     0.045454545     0.454545455
     0.454545455     0.000000000     0.545454545
     0.454545455     0.045454545     0.590909091
     0.500000000     0.000000000     0.590909091
     0.500000000     0.045454545     0.545454545
     0.454545455     0.000000000     0.636363636
     0.454545455     0.045454545     0.681818182
     0.500000000     0.000000000     0.681818182
     0.500000000     0.045454545     0.636363636
     0.454545455     0.000000000     0.727272727
     0.454545455     0.045454545     0.772727273
     0.500000000     0.000000000     0.772727273
     0.500000000     0.045454545     0.727272727
     0.454545455     0.000000000     0.818181818
     0.454545455     0.045454545     0.863636364
     0.500000000     0.000000000     0.863636364
     0.454545455     0.000000000     0.909090909
     0.500000000     0.000000000     0.954545455
     0.454545455     0.090909091     0.000000000
     0.500000000     0.136363636     0.000000000
     0.454545455     0.090909091     0.090909091
     0.500000000     0.090909091     0.136363636
     0.500000000     0.136363636     0.090909091
     0.454545455     0.090909091     0.181818182
     0.500000000     0.090909091     0.227272727
     0.500000000     0.136363636     0.181818182
     0.454545455     0.090909091     0.272727273
     0.500000000     0.090909091     0.318181818
     0.500000000     0.136363636     0.272727273
     0.454545455     0.090909091     0.363636364
     0.454545455     0.136363636     0.409090909
     0.500000000     0.090909091     0.409090909
     0.454545455     0.090909091     0.454545455
     0.500000000     0.090909091     0.500000000
     0.500000000     0.136363636     0.454545455
     0.454545455     0.090909091     0.545454545
     0.454545455     0.136363636     0.590909091
     0.500000000     0.090909091     0.590909091
     0.454545455     0.090909091     0.636363636
     0.454545455     0.136363636     0.681818182
     0.500000000     0.136363636     0.636363636
     0.454545455     0.090909091     0.727272727
     0.454545455     0.136363636     0.772727273
     0.500000000     0.090909091     0.772727273
     0.500000000     0.136363636     0.727272727
     0.454545455     0.090909091     0.818181818
     0.454545455     0.136363636     0.863636364
     0.500000000     0.090909091     0.863636364
     0.500000000     0.136363636     0.818181818
     0.454545455     0.090909091     0.909090909
     0.500000000     0.090909091     0.954545455
     0.500000000     0.136363636     0.909090909
     0.454545455     0.181818182     0.000000000
     0.454545455     0.181818182     0.090909091
     0.454545455     0.227272727     0.136363636
     0.500000000     0.181818182     0.136363636
     0.500000000     0.227272727     0.090909091
     0.454545455     0.181818182     0.181818182
     0.454545455     0.227272727     0.227272727
     0.500000000     0.181818182     0.227272727
     0.454545455     0.181818182     0.272727273
     0.500000000     0.227272727     0.272727273
     0.454545455     0.181818182     0.363636364
     0.454545455     0.227272727     0.409090909
     0.500000000     0.227272727     0.363636364
     0.454545455     0.181818182     0.454545455
     0.454545455     0.227272727     0.500000000
     0.500000000     0.181818182     0.500000000
     0.500000000     0.227272727     0.454545455
     0.454545455     0.181818182     0.545454545
     0.454545455     0.227272727     0.590909091
     0.500000000     0.181818182     0.590909091
     0.500000000     0.227272727     0.545454545
     0.454545455     0.227272727     0.681818182
     0.500000000     0.181818182     0.681818182
     0.500000000     0.227272727     0.636363636
     0.454545455     0.181818182     0.727272727
     0.454545455     0.227272727     0.772727273
     0.500000000     0.181818182     0.772727273
     0.454545455     0.181818182     0.818181818
     0.454545455     0.227272727     0.863636364
     0.500000000     0.227272727     0.818181818
     0.454545455     0.181818182     0.909090909
     0.454545455     0.227272727     0.954545455
     0.500000000     0.181818182     0.954545455
     0.454545455     0.272727273     0.000000000
     0.500000000     0.272727273     0.045454545
     0.454545455     0.272727273     0.090909091
     0.454545455     0.318181818     0.136363636
     0.500000000     0.272727273     0.136363636
     0.500000000     0.318181818     0.090909091
     0.454545455     0.272727273     0.181818182
     0.500000000     0.272727273     0.227272727
     0.500000000     0.318181818     0.181818182
     0.454545455     0.272727273     0.272727273
     0.454545455     0.318181818     0.318181818
     0.500000000     0.318181818     0.272727273
     0.454545455     0.272727273     0.363636364
     0.454545455     0.318181818     0.409090909
     0.500000000     0.272727273     0.409090909
     0.500000000     0.318181818     0.363636364
     0.454545455     0.272727273     0.454545455
     0.500000000     0.272727273     0.500000000
     0.500000000     0.318181818     0.454545455
     0.454545455     0.272727273     0.545454545
     0.454545455     0.318181818     0.590909091
     0.500000000     0.272727273     0.590909091
     0.500000000     0.318181818     0.545454545
     0.454545455     0.318181818     0.681818182
     0.500000000     0.272727273     0.681818182
     0.500000000     0.318181818     0.636363636
     0.454545455     0.272727273     0.727272727
     0.454545455     0.318181818     0.772727273
     0.500000000     0.318181818     0.727272727
     0.454545455     0.318181818     0.863636364
     0.500000000     0.272727273     0.863636364
     0.500000000     0.318181818     0.818181818
     0.454545455     0.318181818     0.954545455
     0.500000000     0.318181818     0.909090909
     0.454545455     0.363636364     0.000000000
     0.500000000     0.363636364     0.045454545
     0.500000000     0.409090909     0.000000000
     0.454545455     0.363636364     0.090909091
     0.454545455     0.409090909     0.136363636
     0.500000000     0.363636364     0.136363636
     0.500000000     0.363636364     0.227272727
     0.500000000     0.409090909     0.181818182
     0.454545455     0.409090909     0.318181818
     0.500000000     0.363636364     0.318181818
     0.500000000     0.409090909     0.272727273
     0.454545455     0.363636364     0.363636364
     0.454545455     0.409090909     0.409090909
     0.454545455     0.363636364     0.454545455
     0.454545455     0.409090909     0.500000000
     0.500000000     0.363636364     0.500000000
     0.500000000     0.409090909     0.454545455
     0.454545455     0.409090909     0.590909091
     0.500000000     0.409090909     0.545454545
     0.454545455     0.363636364     0.636363636
     0.454545455     0.409090909     0.681818182
     0.500000000     0.363636364     0.681818182
     0.454545455     0.363636364     0.727272727
     0.454545455     0.409090909     0.772727273
     0.500000000     0.363636364     0.772727273
     0.500000000     0.409090909     0.727272727
     0.454545455     0.409090909     0.863636364
     0.500000000     0.409090909     0.818181818
     0.454545455     0.409090909     0.954545455
     0.500000000     0.363636364     0.954545455
     0.500000000     0.409090909     0.909090909
     0.454545455     0.454545455     0.000000000
     0.454545455     0.500000000     0.045454545
     0.500000000     0.454545455     0.045454545
     0.500000000     0.500000000     0.000000000
     0.454545455     0.500000000     0.136363636
     0.500000000     0.500000000     0.090909091
     0.454545455     0.454545455     0.181818182
     0.454545455     0.500000000     0.227272727
     0.500000000     0.454545455     0.227272727
     0.500000000     0.500000000     0.181818182
     0.454545455     0.454545455     0.272727273
     0.454545455     0.500000000     0.318181818
     0.500000000     0.454545455     0.318181818
     0.500000000     0.500000000     0.272727273
     0.454545455     0.500000000     0.409090909
     0.500000000     0.454545455     0.409090909
     0.454545455     0.454545455     0.454545455
     0.454545455     0.500000000     0.500000000
     0.500000000     0.454545455     0.500000000
     0.500000000     0.500000000     0.454545455
     0.454545455     0.500000000     0.590909091
     0.454545455     0.454545455     0.636363636
     0.500000000     0.454545455     0.681818182
     0.454545455     0.454545455     0.727272727
     0.500000000     0.454545455     0.772727273
     0.500000000     0.500000000     0.727272727
     0.454545455     0.454545455     0.818181818
     0.454545455     0.500000000     0.863636364
     0.454545455     0.454545455     0.909090909
     0.500000000     0.454545455     0.954545455
     0.454545455     0.545454545     0.000000000
     0.454545455     0.590909091     0.045454545
     0.454545455     0.545454545     0.090909091
     0.500000000     0.545454545     0.136363636
     0.500000000     0.590909091     0.090909091
     0.454545455     0.545454545     0.181818182
     0.454545455     0.590909091     0.227272727
     0.500000000     0.545454545     0.227272727
     0.500000000     0.590909091     0.181818182
     0.454545455     0.545454545     0.272727273
     0.454545455     0.590909091     0.318181818
     0.500000000     0.590909091     0.272727273
     0.454545455     0.545454545     0.363636364
     0.454545455     0.590909091     0.409090909
     0.500000000     0.590909091     0.363636364
     0.454545455     0.545454545     0.454545455
     0.454545455     0.590909091     0.500000000
     0.500000000     0.590909091     0.454545455
     0.454545455     0.545454545     0.545454545
     0.500000000     0.545454545     0.590909091
     0.500000000     0.590909091     0.545454545
     0.454545455     0.590909091     0.681818182
     0.500000000     0.545454545     0.681818182
     0.500000000     0.590909091     0.636363636
     0.454545455     0.545454545     0.727272727
     0.454545455     0.590909091     0.772727273
     0.500000000     0.545454545     0.772727273
     0.454545455     0.590909091     0.863636364
     0.500000000     0.545454545     0.863636364
     0.454545455     0.545454545     0.909090909
     0.500000000     0.545454545     0.954545455
     0.500000000     0.590909091     0.909090909
     0.454545455     0.681818182     0.045454545
     0.500000000     0.636363636     0.045454545
     0.454545455     0.636363636     0.090909091
     0.454545455     0.681818182     0.136363636
     0.500000000     0.636363636     0.136363636
     0.500000000     0.681818182     0.090909091
     0.454545455     0.681818182     0.227272727
     0.500000000     0.681818182     0.181818182
     0.454545455     0.681818182     0.318181818
     0.500000000     0.681818182     0.272727273
     0.454545455     0.636363636     0.363636364
     0.500000000     0.636363636     0.409090909
     0.500000000     0.681818182     0.363636364
     0.454545455     0.636363636     0.454545455
     0.500000000     0.636363636     0.500000000
     0.454545455     0.636363636     0.545454545
     0.454545455     0.681818182     0.590909091
     0.500000000     0.636363636     0.590909091
     0.500000000     0.681818182     0.545454545
     0.454545455     0.636363636     0.636363636
     0.454545455     0.681818182     0.681818182
     0.500000000     0.636363636     0.681818182
     0.500000000     0.681818182     0.636363636
     0.454545455     0.636363636     0.727272727
     0.454545455     0.681818182     0.772727273
     0.500000000     0.636363636     0.772727273
     0.500000000     0.681818182     0.727272727
     0.454545455     0.636363636     0.818181818
     0.454545455     0.681818182     0.863636364
     0.500000000     0.681818182     0.818181818
     0.454545455     0.636363636     0.909090909
     0.454545455     0.681818182     0.954545455
     0.500000000     0.681818182     0.909090909
     0.454545455     0.727272727     0.000000000
     0.454545455     0.772727273     0.045454545
     0.454545455     0.727272727     0.090909091
     0.454545455     0.772727273     0.136363636
     0.500000000     0.727272727     0.136363636
     0.454545455     0.727272727     0.181818182
     0.454545455     0.772727273     0.227272727
     0.500000000     0.772727273     0.181818182
     0.454545455     0.772727273     0.318181818
     0.500000000     0.727272727     0.318181818
     0.454545455     0.727272727     0.363636364
     0.500000000     0.727272727     0.409090909
     0.500000000     0.772727273     0.363636364
     0.454545455     0.772727273     0.500000000
     0.500000000     0.772727273     0.454545455
     0.454545455     0.727272727     0.545454545
     0.454545455     0.772727273     0.590909091
     0.500000000     0.772727273     0.545454545
     0.454545455     0.727272727     0.636363636
     0.454545455     0.772727273     0.681818182
     0.500000000     0.727272727     0.681818182
     0.500000000     0.772727273     0.636363636
     0.454545455     0.727272727     0.727272727
     0.454545455     0.772727273     0.772727273
     0.500000000     0.727272727     0.772727273
     0.454545455     0.772727273     0.863636364
     0.500000000     0.727272727     0.863636364
     0.500000000     0.772727273     0.818181818
     0.454545455     0.727272727     0.909090909
     0.454545455     0.772727273     0.954545455
     0.500000000     0.727272727     0.954545455
     0.500000000     0.772727273     0.909090909
     0.454545455     0.818181818     0.000000000
     0.500000000     0.818181818     0.045454545
     0.500000000     0.863636364     0.000000000
     0.454545455     0.818181818     0.090909091
     0.500000000     0.818181818     0.136363636
     0.500000000     0.863636364     0.090909091
     0.454545455     0.818181818     0.181818182
     0.454545455     0.863636364     0.227272727
     0.500000000     0.818181818     0.227272727
     0.500000000     0.863636364     0.181818182
     0.454545455     0.818181818     0.272727273
     0.454545455     0.863636364     0.318181818
     0.500000000     0.818181818     0.318181818
     0.500000000     0.863636364     0.272727273
     0.454545455     0.818181818     0.363636364
     0.454545455     0.863636364     0.409090909
     0.500000000     0.818181818     0.409090909
     0.454545455     0.818181818     0.454545455
     0.454545455     0.863636364     0.500000000
     0.500000000     0.818181818     0.500000000
     0.454545455     0.818181818     0.545454545
     0.454545455     0.863636364     0.590909091
     0.500000000     0.818181818     0.590909091
     0.500000000     0.863636364     0.545454545
     0.454545455     0.818181818     0.636363636
     0.500000000     0.863636364     0.636363636
     0.454545455     0.818181818     0.727272727
     0.500000000     0.818181818     0.772727273
     0.500000000     0.863636364     0.727272727
     0.454545455     0.863636364     0.863636364
     0.500000000     0.818181818     0.863636364
     0.454545455     0.818181818     0.909090909
     0.500000000     0.818181818     0.954545455
     0.500000000     0.863636364     0.909090909
     0.454545455     0.954545455     0.045454545
     0.500000000     0.909090909     0.045454545
     0.500000000     0.954545455     0.000000000
     0.500000000     0.954545455     0.090909091
     0.454545455     0.954545455     0.227272727
     0.500000000     0.909090909     0.227272727
     0.500000000     0.954545455     0.181818182
     0.454545455     0.909090909     0.272727273
     0.454545455     0.954545455     0.318181818
     0.500000000     0.909090909     0.318181818
     0.454545455     0.954545455     0.409090909
     0.500000000     0.954545455     0.363636364
     0.454545455     0.909090909     0.454545455
     0.454545455     0.954545455     0.500000000
     0.500000000     0.909090909     0.500000000
     0.454545455     0.909090909     0.545454545
     0.500000000     0.909090909     0.590909091
     0.500000000     0.954545455     0.545454545
     0.500000000     0.909090909     0.681818182
     0.500000000     0.954545455     0.636363636
     0.454545455     0.954545455     0.772727273
     0.500000000     0.909090909     0.772727273
     0.500000000     0.954545455     0.727272727
     0.454545455     0.954545455     0.863636364
     0.500000000     0.909090909     0.863636364
     0.454545455     0.909090909     0.909090909
     0.500000000     0.909090909     0.954545455
     0.545454545     0.000000000     0.000000000
     0.545454545     0.045454545     0.045454545
     0.590909091     0.045454545     0.000000000
     0.545454545     0.000000000     0.090909091
     0.545454545     0.045454545     0.136363636
     0.590909091     0.000000000     0.136363636
     0.590909091     0.045454545     0.090909091
     0.545454545     0.000000000     0.181818182
     0.545454545     0.045454545     0.227272727
     0.590909091     0.000000000     0.227272727
     0.590909091     0.045454545     0.181818182
     0.545454545     0.000000000     0.272727273
     0.545454545     0.045454545     0.318181818
     0.590909091     0.000000000     0.318181818
     0.545454545     0.000000000     0.363636364
     0.545454545     0.045454545     0.409090909
     0.590909091     0.045454545     0.363636364
     0.545454545     0.000000000     0.454545455
     0.545454545     0.045454545     0.500000000
     0.590909091     0.000000000     0.500000000
     0.590909091     0.045454545     0.454545455
     0.545454545     0.000000000     0.545454545
     0.545454545     0.000000000     0.636363636
     0.545454545     0.045454545     0.681818182
     0.590909091     0.045454545     0.636363636
     0.545454545     0.000000000     0.727272727
     0.545454545     0.045454545     0.772727273
     0.590909091     0.000000000     0.772727273
     0.590909091     0.045454545     0.727272727
     0.590909091     0.000000000     0.863636364
     0.590909091     0.045454545     0.818181818
     0.545454545     0.045454545     0.954545455
     0.590909091     0.045454545     0.909090909
     0.545454545     0.090909091     0.000000000
     0.545454545     0.136363636     0.045454545
     0.590909091     0.090909091     0.045454545
     0.545454545     0.136363636     0.136363636
     0.590909091     0.136363636     0.090909091
     0.545454545     0.090909091     0.181818182
     0.545454545     0.136363636     0.227272727
     0.590909091     0.090909091     0.227272727
     0.590909091     0.136363636     0.181818182
     0.545454545     0.090909091     0.272727273
     0.545454545     0.136363636     0.318181818
     0.590909091     0.136363636     0.272727273
     0.545454545     0.090909091     0.363636364
     0.545454545     0.136363636     0.409090909
     0.590909091     0.090909091     0.409090909
     0.590909091     0.136363636     0.363636364
     0.545454545     0.136363636     0.500000000
     0.590909091     0.090909091     0.500000000
     0.545454545     0.090909091     0.545454545
     0.545454545     0.136363636     0.590909091
     0.590909091     0.136363636     0.545454545
     0.545454545     0.090909091     0.636363636
     0.590909091     0.090909091     0.681818182
     0.590909091     0.136363636     0.636363636
     0.545454545     0.136363636     0.772727273
     0.590909091     0.090909091     0.772727273
     0.590909091     0.136363636     0.727272727
     0.545454545     0.090909091     0.818181818
     0.545454545     0.136363636     0.863636364
     0.590909091     0.090909091     0.863636364
     0.590909091     0.136363636     0.818181818
     0.545454545     0.090909091     0.909090909
     0.545454545     0.136363636     0.954545455
     0.590909091     0.090909091     0.954545455
     0.545454545     0.181818182     0.000000000
     0.545454545     0.227272727     0.045454545
     0.545454545     0.181818182     0.090909091
     0.590909091     0.181818182     0.136363636
     0.590909091     0.227272727     0.090909091
     0.545454545     0.227272727     0.227272727
     0.590909091     0.227272727     0.181818182
     0.545454545     0.181818182     0.272727273
     0.545454545     0.227272727     0.318181818
     0.590909091     0.181818182     0.318181818
     0.590909091     0.227272727     0.272727273
     0.545454545     0.181818182     0.363636364
     0.590909091     0.181818182     0.409090909
     0.545454545     0.181818182     0.454545455
     0.545454545     0.227272727     0.500000000
     0.590909091     0.181818182     0.500000000
     0.590909091     0.181818182     0.590909091
     0.590909091     0.227272727     0.545454545
     0.545454545     0.181818182     0.636363636
     0.590909091     0.181818182     0.681818182
     0.545454545     0.181818182     0.727272727
     0.545454545     0.227272727     0.772727273
     0.590909091     0.181818182     0.772727273
     0.545454545     0.227272727     0.863636364
     0.590909091     0.181818182     0.863636364
     0.590909091     0.227272727     0.818181818
     0.545454545     0.181818182     0.909090909
     0.590909091     0.181818182     0.954545455
     0.590909091     0.227272727     0.909090909
     0.545454545     0.272727273     0.000000000
     0.545454545     0.318181818     0.045454545
     0.590909091     0.272727273     0.045454545
     0.590909091     0.318181818     0.000000000
     0.545454545     0.318181818     0.136363636
     0.590909091     0.272727273     0.136363636
     0.545454545     0.272727273     0.181818182
     0.545454545     0.318181818     0.227272727
     0.590909091     0.272727273     0.227272727
     0.590909091     0.318181818     0.181818182
     0.545454545     0.272727273     0.272727273
     0.545454545     0.318181818     0.318181818
     0.590909091     0.272727273     0.318181818
     0.545454545     0.318181818     0.409090909
     0.590909091     0.272727273     0.409090909
     0.590909091     0.318181818     0.363636364
     0.545454545     0.272727273     0.454545455
     0.545454545     0.318181818     0.500000000
     0.590909091     0.272727273     0.500000000
     0.590909091     0.318181818     0.454545455
     0.545454545     0.272727273     0.545454545
     0.545454545     0.318181818     0.590909091
     0.590909091     0.272727273     0.590909091
     0.590909091     0.318181818     0.545454545
     0.545454545     0.272727273     0.636363636
     0.545454545     0.318181818     0.681818182
     0.590909091     0.272727273     0.681818182
     0.590909091     0.318181818     0.636363636
     0.590909091     0.272727273     0.772727273
     0.590909091     0.318181818     0.727272727
     0.545454545     0.272727273     0.818181818
     0.545454545     0.318181818     0.863636364
     0.590909091     0.272727273     0.863636364
     0.590909091     0.318181818     0.818181818
     0.545454545     0.272727273     0.909090909
     0.545454545     0.318181818     0.954545455
     0.590909091     0.272727273     0.954545455
     0.590909091     0.318181818     0.909090909
     0.545454545     0.363636364     0.000000000
     0.590909091     0.409090909     0.000000000
     0.590909091     0.363636364     0.136363636
     0.590909091     0.409090909     0.090909091
     0.590909091     0.363636364     0.227272727
     0.590909091     0.409090909     0.181818182
     0.545454545     0.363636364     0.272727273
     0.545454545     0.409090909     0.318181818
     0.590909091     0.363636364     0.318181818
     0.590909091     0.409090909     0.272727273
     0.545454545     0.363636364     0.363636364
     0.590909091     0.409090909     0.363636364
     0.545454545     0.363636364     0.454545455
     0.545454545     0.409090909     0.500000000
     0.590909091     0.409090909     0.454545455
     0.545454545     0.363636364     0.545454545
     0.545454545     0.409090909     0.590909091
     0.590909091     0.363636364     0.590909091
     0.590909091     0.409090909     0.545454545
     0.545454545     0.409090909     0.681818182
     0.590909091     0.363636364     0.681818182
     0.590909091     0.409090909     0.636363636
     0.545454545     0.363636364     0.727272727
     0.545454545     0.409090909     0.772727273
     0.590909091     0.363636364     0.772727273
     0.590909091     0.409090909     0.727272727
     0.545454545     0.409090909     0.863636364
     0.590909091     0.363636364     0.863636364
     0.590909091     0.409090909     0.818181818
     0.545454545     0.363636364     0.909090909
     0.545454545     0.409090909     0.954545455
     0.590909091     0.363636364     0.954545455
     0.590909091     0.409090909     0.909090909
     0.545454545     0.454545455     0.000000000
     0.545454545     0.500000000     0.045454545
     0.590909091     0.500000000     0.000000000
     0.545454545     0.454545455     0.090909091
     0.545454545     0.500000000     0.136363636
     0.590909091     0.500000000     0.181818182
     0.545454545     0.454545455     0.272727273
     0.545454545     0.500000000     0.318181818
     0.590909091     0.454545455     0.318181818
     0.590909091     0.500000000     0.272727273
     0.545454545     0.454545455     0.363636364
     0.545454545     0.500000000     0.409090909
     0.590909091     0.454545455     0.409090909
     0.545454545     0.454545455     0.454545455
     0.590909091     0.454545455     0.500000000
     0.590909091     0.500000000     0.454545455
     0.590909091     0.500000000     0.545454545
     0.545454545     0.454545455     0.636363636
     0.545454545     0.500000000     0.681818182
     0.590909091     0.454545455     0.681818182
     0.590909091     0.500000000     0.636363636
     0.545454545     0.454545455     0.727272727
     0.545454545     0.500000000     0.772727273
     0.590909091     0.454545455     0.772727273
     0.590909091     0.500000000     0.727272727
     0.590909091     0.454545455     0.863636364
     0.590909091     0.500000000     0.818181818
     0.545454545     0.500000000     0.954545455
     0.545454545     0.545454545     0.000000000
     0.545454545     0.590909091     0.045454545
     0.590909091     0.545454545     0.045454545
     0.545454545     0.590909091     0.136363636
     0.590909091     0.590909091     0.090909091
     0.545454545     0.590909091     0.227272727
     0.590909091     0.545454545     0.227272727
     0.545454545     0.545454545     0.272727273
     0.545454545     0.590909091     0.318181818
     0.590909091     0.590909091     0.272727273
     0.545454545     0.545454545     0.363636364
     0.590909091     0.590909091     0.363636364
     0.545454545     0.545454545     0.454545455
     0.545454545     0.590909091     0.500000000
     0.590909091     0.590909091     0.454545455
     0.545454545     0.545454545     0.545454545
     0.545454545     0.590909091     0.590909091
     0.590909091     0.545454545     0.590909091
     0.590909091     0.590909091     0.545454545
     0.545454545     0.590909091     0.681818182
     0.545454545     0.545454545     0.727272727
     0.545454545     0.590909091     0.772727273
     0.590909091     0.545454545     0.772727273
     0.590909091     0.590909091     0.727272727
     0.545454545     0.545454545     0.818181818
     0.545454545     0.590909091     0.863636364
     0.590909091     0.545454545     0.863636364
     0.590909091     0.590909091     0.818181818
     0.545454545     0.545454545     0.909090909
     0.545454545     0.590909091     0.954545455
     0.590909091     0.545454545     0.954545455
     0.545454545     0.636363636     0.000000000
     0.545454545     0.681818182     0.045454545
     0.590909091     0.681818182     0.000000000
     0.545454545     0.636363636     0.090909091
     0.545454545     0.681818182     0.136363636
     0.590909091     0.636363636     0.136363636
     0.545454545     0.636363636     0.181818182
     0.590909091     0.681818182     0.181818182
     0.545454545     0.681818182     0.318181818
     0.590909091     0.636363636     0.318181818
     0.590909091     0.681818182     0.272727273
     0.545454545     0.636363636     0.363636364
     0.545454545     0.681818182     0.409090909
     0.590909091     0.636363636     0.409090909
     0.545454545     0.681818182     0.500000000
     0.590909091     0.636363636     0.500000000
     0.590909091     0.681818182     0.454545455
     0.545454545     0.636363636     0.545454545
     0.545454545     0.681818182     0.590909091
     0.590909091     0.681818182     0.545454545
     0.545454545     0.636363636     0.636363636
     0.545454545     0.681818182     0.681818182
     0.590909091     0.636363636     0.681818182
     0.545454545     0.636363636     0.727272727
     0.545454545     0.681818182     0.772727273
     0.590909091     0.681818182     0.727272727
     0.545454545     0.681818182     0.863636364
     0.590909091     0.636363636     0.863636364
     0.545454545     0.636363636     0.909090909
     0.590909091     0.636363636     0.954545455
     0.590909091     0.681818182     0.909090909
     0.545454545     0.772727273     0.045454545
     0.590909091     0.727272727     0.045454545
     0.545454545     0.772727273     0.136363636
     0.590909091     0.772727273     0.090909091
     0.545454545     0.727272727     0.181818182
     0.590909091     0.727272727     0.227272727
     0.590909091     0.772727273     0.181818182
     0.545454545     0.772727273     0.318181818
     0.545454545     0.727272727     0.363636364
     0.545454545     0.772727273     0.409090909
     0.590909091     0.727272727     0.409090909
     0.590909091     0.772727273     0.363636364
     0.545454545     0.772727273     0.500000000
     0.590909091     0.772727273     0.454545455
     0.545454545     0.727272727     0.545454545
     0.545454545     0.772727273     0.590909091
     0.590909091     0.772727273     0.545454545
     0.545454545     0.727272727     0.636363636
     0.545454545     0.772727273     0.681818182
     0.590909091     0.727272727     0.681818182
     0.545454545     0.727272727     0.727272727
     0.545454545     0.772727273     0.772727273
     0.590909091     0.727272727     0.772727273
     0.590909091     0.772727273     0.727272727
     0.545454545     0.772727273     0.863636364
     0.590909091     0.727272727     0.863636364
     0.590909091     0.772727273     0.818181818
     0.545454545     0.727272727     0.909090909
     0.545454545     0.772727273     0.954545455
     0.590909091     0.772727273     0.909090909
     0.545454545     0.863636364     0.045454545
     0.590909091     0.818181818     0.045454545
     0.545454545     0.818181818     0.090909091
     0.545454545     0.863636364     0.136363636
     0.590909091     0.863636364     0.090909091
     0.545454545     0.818181818     0.181818182
     0.545454545     0.863636364     0.227272727
     0.590909091     0.818181818     0.227272727
     0.590909091     0.818181818     0.318181818
     0.590909091     0.863636364     0.272727273
     0.545454545     0.818181818     0.363636364
     0.545454545     0.863636364     0.409090909
     0.590909091     0.818181818     0.409090909
     0.545454545     0.818181818     0.454545455
     0.590909091     0.818181818     0.500000000
     0.590909091     0.863636364     0.454545455
     0.545454545     0.818181818     0.545454545
     0.545454545     0.863636364     0.590909091
     0.590909091     0.818181818     0.590909091
     0.590909091     0.863636364     0.545454545
     0.545454545     0.818181818     0.636363636
     0.545454545     0.863636364     0.681818182
     0.590909091     0.818181818     0.681818182
     0.590909091     0.863636364     0.636363636
     0.545454545     0.818181818     0.727272727
     0.545454545     0.863636364     0.772727273
     0.590909091     0.818181818     0.772727273
     0.590909091     0.863636364     0.727272727
     0.545454545     0.818181818     0.818181818
     0.545454545     0.863636364     0.863636364
     0.590909091     0.863636364     0.818181818
     0.545454545     0.818181818     0.909090909
     0.545454545     0.863636364     0.954545455
     0.545454545     0.909090909     0.000000000
     0.545454545     0.954545455     0.045454545
     0.590909091     0.909090909     0.045454545
     0.590909091     0.954545455     0.000000000
     0.545454545     0.909090909     0.090909091
     0.590909091     0.909090909     0.136363636
     0.590909091     0.954545455     0.090909091
     0.545454545     0.909090909     0.181818182
     0.545454545     0.909090909     0.272727273
     0.545454545     0.954545455     0.318181818
     0.590909091     0.909090909     0.318181818
     0.590909091     0.954545455     0.272727273
     0.545454545     0.954545455     0.409090909
     0.590909091     0.909090909     0.409090909
     0.590909091     0.954545455     0.363636364
     0.545454545     0.909090909     0.454545455
     0.545454545     0.954545455     0.500000000
     0.590909091     0.909090909     0.500000000
     0.590909091     0.954545455     0.454545455
     0.545454545     0.909090909     0.545454545
     0.590909091     0.954545455     0.545454545
     0.545454545     0.909090909     0.636363636
     0.545454545     0.954545455     0.681818182
     0.590909091     0.954545455     0.636363636
     0.545454545     0.909090909     0.727272727
     0.590909091     0.909090909     0.772727273
     0.590909091     0.954545455     0.727272727
     0.590909091     0.909090909     0.863636364
     0.590909091     0.954545455     0.818181818
     0.545454545     0.909090909     0.909090909
     0.590909091     0.909090909     0.954545455
     0.636363636     0.000000000     0.000000000
     0.636363636     0.045454545     0.045454545
     0.636363636     0.000000000     0.090909091
     0.681818182     0.000000000     0.136363636
     0.681818182     0.045454545     0.090909091
     0.636363636     0.000000000     0.181818182
     0.681818182     0.000000000     0.227272727
     0.681818182     0.045454545     0.181818182
     0.636363636     0.000000000     0.272727273
     0.636363636     0.045454545     0.318181818
     0.681818182     0.000000000     0.318181818
     0.681818182     0.045454545     0.272727273
     0.636363636     0.000000000     0.363636364
     0.636363636     0.045454545     0.409090909
     0.681818182     0.045454545     0.363636364
     0.636363636     0.045454545     0.500000000
     0.681818182     0.045454545     0.454545455
     0.636363636     0.000000000     0.545454545
     0.636363636     0.045454545     0.590909091
     0.681818182     0.045454545     0.545454545
     0.636363636     0.045454545     0.681818182
     0.681818182     0.000000000     0.681818182
     0.681818182     0.045454545     0.636363636
     0.636363636     0.045454545     0.772727273
     0.681818182     0.000000000     0.772727273
     0.681818182     0.045454545     0.727272727
     0.636363636     0.000000000     0.818181818
     0.636363636     0.045454545     0.863636364
     0.681818182     0.000000000     0.863636364
     0.681818182     0.045454545     0.818181818
     0.636363636     0.045454545     0.954545455
     0.681818182     0.045454545     0.909090909
     0.636363636     0.090909091     0.000000000
     0.636363636     0.136363636     0.045454545
     0.681818182     0.136363636     0.000000000
     0.636363636     0.136363636     0.136363636
     0.681818182     0.090909091     0.136363636
     0.636363636     0.090909091     0.181818182
     0.636363636     0.136363636     0.227272727
     0.681818182     0.090909091     0.227272727
     0.681818182     0.136363636     0.181818182
     0.636363636     0.090909091     0.272727273
     0.636363636     0.136363636     0.318181818
     0.681818182     0.090909091     0.318181818
     0.681818182     0.136363636     0.272727273
     0.636363636     0.090909091     0.363636364
     0.636363636     0.136363636     0.409090909
     0.681818182     0.090909091     0.409090909
     0.681818182     0.136363636     0.363636364
     0.636363636     0.090909091     0.454545455
     0.636363636     0.136363636     0.500000000
     0.636363636     0.090909091     0.545454545
     0.636363636     0.136363636     0.590909091
     0.681818182     0.090909091     0.590909091
     0.636363636     0.136363636     0.681818182
     0.681818182     0.136363636     0.636363636
     0.636363636     0.090909091     0.727272727
     0.681818182     0.090909091     0.772727273
     0.681818182     0.136363636     0.727272727
     0.636363636     0.136363636     0.863636364
     0.681818182     0.090909091     0.863636364
     0.681818182     0.136363636     0.818181818
     0.636363636     0.090909091     0.909090909
     0.681818182     0.090909091     0.954545455
     0.681818182     0.136363636     0.909090909
     0.636363636     0.181818182     0.000000000
     0.636363636     0.227272727     0.045454545
     0.681818182     0.181818182     0.045454545
     0.681818182     0.227272727     0.000000000
     0.636363636     0.227272727     0.136363636
     0.681818182     0.181818182     0.136363636
     0.681818182     0.227272727     0.090909091
     0.636363636     0.181818182     0.181818182
     0.636363636     0.227272727     0.227272727
     0.681818182     0.181818182     0.227272727
     0.681818182     0.227272727     0.181818182
     0.636363636     0.181818182     0.272727273
     0.636363636     0.227272727     0.318181818
     0.681818182     0.181818182     0.318181818
     0.681818182     0.227272727     0.272727273
     0.636363636     0.227272727     0.409090909
     0.681818182     0.181818182     0.409090909
     0.681818182     0.181818182     0.500000000
     0.681818182     0.227272727     0.454545455
     0.636363636     0.181818182     0.545454545
     0.681818182     0.227272727     0.545454545
     0.636363636     0.181818182     0.636363636
     0.681818182     0.181818182     0.681818182
     0.636363636     0.181818182     0.727272727
     0.636363636     0.227272727     0.772727273
     0.681818182     0.181818182     0.772727273
     0.681818182     0.227272727     0.727272727
     0.636363636     0.181818182     0.818181818
     0.636363636     0.227272727     0.863636364
     0.681818182     0.181818182     0.863636364
     0.636363636     0.227272727     0.954545455
     0.681818182     0.181818182     0.954545455
     0.681818182     0.227272727     0.909090909
     0.636363636     0.272727273     0.000000000
     0.636363636     0.318181818     0.045454545
     0.681818182     0.272727273     0.045454545
     0.636363636     0.272727273     0.090909091
     0.636363636     0.318181818     0.136363636
     0.681818182     0.272727273     0.136363636
     0.636363636     0.272727273     0.181818182
     0.636363636     0.318181818     0.227272727
     0.681818182     0.318181818     0.181818182
     0.681818182     0.318181818     0.272727273
     0.636363636     0.272727273     0.363636364
     0.636363636     0.318181818     0.409090909
     0.681818182     0.318181818     0.363636364
     0.636363636     0.272727273     0.454545455
     0.636363636     0.318181818     0.500000000
     0.681818182     0.272727273     0.500000000
     0.681818182     0.318181818     0.454545455
     0.636363636     0.272727273     0.545454545
     0.636363636     0.318181818     0.590909091
     0.681818182     0.272727273     0.590909091
     0.681818182     0.318181818     0.545454545
     0.636363636     0.272727273     0.636363636
     0.636363636     0.318181818     0.681818182
     0.681818182     0.272727273     0.681818182
     0.681818182     0.318181818     0.636363636
     0.636363636     0.272727273     0.727272727
     0.681818182     0.272727273     0.772727273
     0.681818182     0.318181818     0.727272727
     0.636363636     0.272727273     0.818181818
     0.681818182     0.272727273     0.863636364
     0.681818182     0.318181818     0.818181818
     0.636363636     0.272727273     0.909090909
     0.681818182     0.272727273     0.954545455
     0.681818182     0.318181818     0.909090909
     0.636363636     0.363636364     0.000000000
     0.681818182     0.409090909     0.000000000
     0.636363636     0.363636364     0.090909091
     0.636363636     0.409090909     0.136363636
     0.681818182     0.363636364     0.136363636
     0.681818182     0.409090909     0.090909091
     0.636363636     0.363636364     0.181818182
     0.636363636     0.409090909     0.227272727
     0.681818182     0.363636364     0.227272727
     0.636363636     0.363636364     0.272727273
     0.636363636     0.409090909     0.318181818
     0.681818182     0.363636364     0.318181818
     0.636363636     0.363636364     0.363636364
     0.636363636     0.409090909     0.409090909
     0.681818182     0.363636364     0.409090909
     0.681818182     0.409090909     0.363636364
     0.636363636     0.409090909     0.500000000
     0.681818182     0.363636364     0.500000000
     0.681818182     0.409090909     0.454545455
     0.636363636     0.363636364     0.545454545
     0.636363636     0.409090909     0.590909091
     0.681818182     0.363636364     0.590909091
     0.681818182     0.409090909     0.545454545
     0.636363636     0.363636364     0.636363636
     0.636363636     0.409090909     0.681818182
     0.681818182     0.363636364     0.681818182
     0.681818182     0.409090909     0.636363636
     0.636363636     0.363636364     0.727272727
     0.636363636     0.409090909     0.772727273
     0.681818182     0.363636364     0.772727273
     0.681818182     0.409090909     0.727272727
     0.636363636     0.363636364     0.818181818
     0.681818182     0.363636364     0.863636364
     0.681818182     0.409090909     0.818181818
     0.636363636     0.409090909     0.954545455
     0.681818182     0.363636364     0.954545455
     0.636363636     0.454545455     0.000000000
     0.636363636     0.500000000     0.045454545
     0.681818182     0.454545455     0.045454545
     0.681818182     0.454545455     0.136363636
     0.681818182     0.500000000     0.090909091
     0.636363636     0.454545455     0.181818182
     0.636363636     0.500000000     0.227272727
     0.681818182     0.454545455     0.227272727
     0.681818182     0.500000000     0.181818182
     0.636363636     0.454545455     0.272727273
     0.636363636     0.500000000     0.318181818
     0.681818182     0.454545455     0.318181818
     0.681818182     0.500000000     0.272727273
     0.681818182     0.454545455     0.409090909
     0.681818182     0.500000000     0.363636364
     0.636363636     0.454545455     0.454545455
     0.636363636     0.500000000     0.500000000
     0.681818182     0.454545455     0.500000000
     0.681818182     0.500000000     0.454545455
     0.636363636     0.454545455     0.545454545
     0.681818182     0.454545455     0.590909091
     0.636363636     0.454545455     0.636363636
     0.636363636     0.500000000     0.681818182
     0.681818182     0.454545455     0.681818182
     0.681818182     0.500000000     0.727272727
     0.636363636     0.454545455     0.818181818
     0.636363636     0.500000000     0.863636364
     0.681818182     0.454545455     0.863636364
     0.636363636     0.500000000     0.954545455
     0.681818182     0.454545455     0.954545455
     0.681818182     0.500000000     0.909090909
     0.636363636     0.545454545     0.000000000
     0.636363636     0.590909091     0.045454545
     0.681818182     0.545454545     0.045454545
     0.681818182     0.590909091     0.000000000
     0.636363636     0.545454545     0.090909091
     0.636363636     0.590909091     0.136363636
     0.681818182     0.545454545     0.136363636
     0.681818182     0.545454545     0.227272727
     0.681818182     0.545454545     0.318181818
     0.681818182     0.590909091     0.272727273
     0.636363636     0.545454545     0.363636364
     0.636363636     0.590909091     0.409090909
     0.681818182     0.545454545     0.409090909
     0.681818182     0.590909091     0.363636364
     0.636363636     0.545454545     0.454545455
     0.681818182     0.545454545     0.500000000
     0.681818182     0.590909091     0.545454545
     0.636363636     0.545454545     0.636363636
     0.681818182     0.545454545     0.681818182
     0.681818182     0.590909091     0.636363636
     0.681818182     0.545454545     0.772727273
     0.681818182     0.590909091     0.727272727
     0.636363636     0.545454545     0.818181818
     0.636363636     0.590909091     0.863636364
     0.681818182     0.545454545     0.863636364
     0.681818182     0.590909091     0.818181818
     0.636363636     0.590909091     0.954545455
     0.681818182     0.545454545     0.954545455
     0.681818182     0.590909091     0.909090909
     0.681818182     0.636363636     0.045454545
     0.681818182     0.681818182     0.000000000
     0.636363636     0.636363636     0.090909091
     0.681818182     0.681818182     0.090909091
     0.636363636     0.636363636     0.181818182
     0.681818182     0.681818182     0.181818182
     0.636363636     0.636363636     0.272727273
     0.681818182     0.636363636     0.318181818
     0.636363636     0.636363636     0.363636364
     0.636363636     0.681818182     0.409090909
     0.681818182     0.681818182     0.363636364
     0.636363636     0.681818182     0.500000000
     0.681818182     0.636363636     0.500000000
     0.681818182     0.681818182     0.454545455
     0.636363636     0.636363636     0.545454545
     0.681818182     0.636363636     0.590909091
     0.681818182     0.681818182     0.545454545
     0.636363636     0.636363636     0.636363636
     0.681818182     0.681818182     0.636363636
     0.636363636     0.636363636     0.727272727
     0.681818182     0.636363636     0.772727273
     0.681818182     0.681818182     0.727272727
     0.636363636     0.636363636     0.818181818
     0.636363636     0.681818182     0.863636364
     0.681818182     0.681818182     0.818181818
     0.636363636     0.636363636     0.909090909
     0.636363636     0.681818182     0.954545455
     0.681818182     0.636363636     0.954545455
     0.636363636     0.727272727     0.000000000
     0.681818182     0.727272727     0.045454545
     0.681818182     0.772727273     0.000000000
     0.636363636     0.772727273     0.136363636
     0.681818182     0.727272727     0.136363636
     0.681818182     0.772727273     0.090909091
     0.636363636     0.772727273     0.227272727
     0.681818182     0.727272727     0.227272727
     0.681818182     0.772727273     0.181818182
     0.636363636     0.727272727     0.272727273
     0.636363636     0.772727273     0.318181818
     0.681818182     0.772727273     0.272727273
     0.681818182     0.727272727     0.409090909
     0.681818182     0.772727273     0.363636364
     0.636363636     0.772727273     0.500000000
     0.681818182     0.727272727     0.500000000
     0.681818182     0.772727273     0.454545455
     0.636363636     0.727272727     0.545454545
     0.636363636     0.772727273     0.590909091
     0.681818182     0.727272727     0.590909091
     0.681818182     0.772727273     0.545454545
     0.636363636     0.772727273     0.681818182
     0.681818182     0.727272727     0.681818182
     0.681818182     0.772727273     0.636363636
     0.681818182     0.727272727     0.772727273
     0.636363636     0.727272727     0.818181818
     0.681818182     0.727272727     0.863636364
     0.681818182     0.772727273     0.818181818
     0.636363636     0.727272727     0.909090909
     0.636363636     0.772727273     0.954545455
     0.681818182     0.727272727     0.954545455
     0.681818182     0.772727273     0.909090909
     0.636363636     0.818181818     0.000000000
     0.636363636     0.863636364     0.045454545
     0.681818182     0.818181818     0.045454545
     0.681818182     0.863636364     0.000000000
     0.636363636     0.818181818     0.090909091
     0.636363636     0.863636364     0.136363636
     0.681818182     0.818181818     0.136363636
     0.681818182     0.863636364     0.090909091
     0.636363636     0.818181818     0.181818182
     0.636363636     0.863636364     0.227272727
     0.681818182     0.818181818     0.227272727
     0.636363636     0.863636364     0.318181818
     0.681818182     0.818181818     0.318181818
     0.681818182     0.863636364     0.272727273
     0.636363636     0.818181818     0.363636364
     0.636363636     0.863636364     0.409090909
     0.681818182     0.818181818     0.409090909
     0.636363636     0.818181818     0.454545455
     0.636363636     0.863636364     0.500000000
     0.681818182     0.818181818     0.500000000
     0.681818182     0.863636364     0.454545455
     0.636363636     0.818181818     0.545454545
     0.636363636     0.863636364     0.590909091
     0.681818182     0.818181818     0.590909091
     0.681818182     0.863636364     0.545454545
     0.636363636     0.818181818     0.636363636
     0.636363636     0.863636364     0.681818182
     0.681818182     0.863636364     0.636363636
     0.636363636     0.863636364     0.772727273
     0.681818182     0.818181818     0.772727273
     0.681818182     0.863636364     0.727272727
     0.636363636     0.818181818     0.818181818
     0.636363636     0.863636364     0.863636364
     0.681818182     0.863636364     0.818181818
     0.636363636     0.818181818     0.909090909
     0.636363636     0.863636364     0.954545455
     0.681818182     0.818181818     0.954545455
     0.681818182     0.863636364     0.909090909
     0.636363636     0.909090909     0.000000000
     0.636363636     0.954545455     0.136363636
     0.636363636     0.909090909     0.181818182
     0.681818182     0.909090909     0.227272727
     0.681818182     0.954545455     0.181818182
     0.636363636     0.909090909     0.272727273
     0.636363636     0.954545455     0.318181818
     0.681818182     0.909090909     0.318181818
     0.681818182     0.954545455     0.272727273
     0.636363636     0.909090909     0.363636364
     0.636363636     0.954545455     0.409090909
     0.681818182     0.909090909     0.409090909
     0.681818182     0.954545455     0.363636364
     0.636363636     0.909090909     0.454545455
     0.681818182     0.909090909     0.500000000
     0.681818182     0.954545455     0.454545455
     0.636363636     0.954545455     0.590909091
     0.681818182     0.909090909     0.590909091
     0.681818182     0.954545455     0.545454545
     0.636363636     0.954545455     0.681818182
     0.681818182     0.909090909     0.681818182
     0.681818182     0.954545455     0.636363636
     0.636363636     0.954545455     0.772727273
     0.681818182     0.954545455     0.727272727
     0.636363636     0.909090909     0.818181818
     0.636363636     0.954545455     0.863636364
     0.681818182     0.909090909     0.863636364
     0.636363636     0.909090909     0.909090909
     0.681818182     0.954545455     0.909090909
     0.727272727     0.000000000     0.000000000
     0.727272727     0.045454545     0.045454545
     0.727272727     0.000000000     0.090909091
     0.727272727     0.045454545     0.136363636
     0.772727273     0.045454545     0.090909091
     0.727272727     0.000000000     0.181818182
     0.727272727     0.045454545     0.227272727
     0.772727273     0.000000000     0.227272727
     0.772727273     0.045454545     0.181818182
     0.727272727     0.000000000     0.272727273
     0.727272727     0.045454545     0.318181818
     0.772727273     0.045454545     0.272727273
     0.727272727     0.000000000     0.363636364
     0.727272727     0.000000000     0.454545455
     0.727272727     0.045454545     0.500000000
     0.772727273     0.000000000     0.500000000
     0.772727273     0.045454545     0.454545455
     0.727272727     0.045454545     0.590909091
     0.772727273     0.000000000     0.590909091
     0.727272727     0.000000000     0.636363636
     0.727272727     0.045454545     0.681818182
     0.772727273     0.045454545     0.636363636
     0.727272727     0.045454545     0.772727273
     0.772727273     0.000000000     0.772727273
     0.727272727     0.045454545     0.863636364
     0.772727273     0.000000000     0.863636364
     0.772727273     0.045454545     0.818181818
     0.772727273     0.000000000     0.954545455
     0.772727273     0.045454545     0.909090909
     0.727272727     0.090909091     0.000000000
     0.727272727     0.136363636     0.045454545
     0.772727273     0.090909091     0.045454545
     0.772727273     0.136363636     0.000000000
     0.727272727     0.090909091     0.090909091
     0.727272727     0.136363636     0.136363636
     0.772727273     0.090909091     0.136363636
     0.727272727     0.090909091     0.181818182
     0.727272727     0.136363636     0.227272727
     0.727272727     0.136363636     0.318181818
     0.772727273     0.090909091     0.318181818
     0.772727273     0.136363636     0.272727273
     0.727272727     0.090909091     0.363636364
     0.772727273     0.090909091     0.409090909
     0.772727273     0.136363636     0.363636364
     0.727272727     0.090909091     0.454545455
     0.727272727     0.136363636     0.500000000
     0.772727273     0.090909091     0.500000000
     0.772727273     0.136363636     0.454545455
     0.727272727     0.090909091     0.545454545
     0.727272727     0.136363636     0.590909091
     0.772727273     0.136363636     0.545454545
     0.727272727     0.136363636     0.681818182
     0.727272727     0.090909091     0.727272727
     0.727272727     0.136363636     0.772727273
     0.772727273     0.090909091     0.772727273
     0.772727273     0.136363636     0.727272727
     0.772727273     0.136363636     0.818181818
     0.727272727     0.090909091     0.909090909
     0.727272727     0.136363636     0.954545455
     0.772727273     0.090909091     0.954545455
     0.772727273     0.136363636     0.909090909
     0.727272727     0.181818182     0.000000000
     0.727272727     0.227272727     0.045454545
     0.772727273     0.227272727     0.000000000
     0.772727273     0.227272727     0.090909091
     0.727272727     0.181818182     0.181818182
     0.727272727     0.227272727     0.227272727
     0.772727273     0.181818182     0.227272727
     0.727272727     0.227272727     0.318181818
     0.772727273     0.181818182     0.318181818
     0.772727273     0.227272727     0.272727273
     0.727272727     0.181818182     0.363636364
     0.727272727     0.227272727     0.409090909
     0.772727273     0.181818182     0.409090909
     0.772727273     0.227272727     0.363636364
     0.727272727     0.181818182     0.454545455
     0.727272727     0.227272727     0.500000000
     0.772727273     0.181818182     0.500000000
     0.772727273     0.227272727     0.454545455
     0.727272727     0.181818182     0.545454545
     0.727272727     0.227272727     0.590909091
     0.772727273     0.181818182     0.590909091
     0.727272727     0.181818182     0.636363636
     0.727272727     0.227272727     0.681818182
     0.772727273     0.181818182     0.681818182
     0.727272727     0.227272727     0.772727273
     0.772727273     0.227272727     0.727272727
     0.727272727     0.181818182     0.818181818
     0.727272727     0.227272727     0.863636364
     0.772727273     0.181818182     0.863636364
     0.727272727     0.227272727     0.954545455
     0.772727273     0.181818182     0.954545455
     0.772727273     0.227272727     0.909090909
     0.727272727     0.318181818     0.045454545
     0.727272727     0.272727273     0.090909091
     0.727272727     0.318181818     0.136363636
     0.772727273     0.272727273     0.136363636
     0.727272727     0.272727273     0.181818182
     0.727272727     0.318181818     0.227272727
     0.772727273     0.272727273     0.227272727
     0.727272727     0.272727273     0.272727273
     0.727272727     0.318181818     0.318181818
     0.772727273     0.272727273     0.318181818
     0.727272727     0.272727273     0.363636364
     0.772727273     0.272727273     0.409090909
     0.772727273     0.318181818     0.363636364
     0.727272727     0.272727273     0.454545455
     0.727272727     0.318181818     0.500000000
     0.772727273     0.272727273     0.500000000
     0.772727273     0.318181818     0.454545455
     0.727272727     0.272727273     0.545454545
     0.727272727     0.318181818     0.590909091
     0.772727273     0.272727273     0.590909091
     0.772727273     0.318181818     0.545454545
     0.772727273     0.318181818     0.636363636
     0.727272727     0.272727273     0.727272727
     0.772727273     0.272727273     0.772727273
     0.727272727     0.318181818     0.863636364
     0.772727273     0.272727273     0.863636364
     0.772727273     0.318181818     0.818181818
     0.727272727     0.272727273     0.909090909
     0.727272727     0.318181818     0.954545455
     0.772727273     0.272727273     0.954545455
     0.772727273     0.318181818     0.909090909
     0.727272727     0.409090909     0.045454545
     0.772727273     0.363636364     0.045454545
     0.772727273     0.409090909     0.000000000
     0.727272727     0.363636364     0.090909091
     0.727272727     0.409090909     0.136363636
     0.772727273     0.363636364     0.136363636
     0.772727273     0.409090909     0.090909091
     0.727272727     0.363636364     0.181818182
     0.727272727     0.409090909     0.227272727
     0.772727273     0.363636364     0.227272727
     0.772727273     0.363636364     0.318181818
     0.727272727     0.363636364     0.363636364
     0.727272727     0.409090909     0.409090909
     0.772727273     0.363636364     0.409090909
     0.727272727     0.363636364     0.454545455
     0.727272727     0.409090909     0.500000000
     0.772727273     0.363636364     0.500000000
     0.772727273     0.363636364     0.590909091
     0.772727273     0.409090909     0.545454545
     0.727272727     0.409090909     0.681818182
     0.772727273     0.363636364     0.681818182
     0.772727273     0.409090909     0.636363636
     0.727272727     0.363636364     0.818181818
     0.727272727     0.409090909     0.863636364
     0.772727273     0.363636364     0.863636364
     0.772727273     0.409090909     0.818181818
     0.727272727     0.363636364     0.909090909
     0.772727273     0.363636364     0.954545455
     0.727272727     0.454545455     0.000000000
     0.727272727     0.500000000     0.045454545
     0.772727273     0.454545455     0.045454545
     0.772727273     0.500000000     0.000000000
     0.727272727     0.454545455     0.090909091
     0.727272727     0.500000000     0.136363636
     0.772727273     0.454545455     0.136363636
     0.772727273     0.500000000     0.090909091
     0.727272727     0.454545455     0.181818182
     0.727272727     0.500000000     0.227272727
     0.772727273     0.454545455     0.227272727
     0.772727273     0.500000000     0.181818182
     0.727272727     0.454545455     0.272727273
     0.772727273     0.500000000     0.272727273
     0.727272727     0.454545455     0.363636364
     0.727272727     0.500000000     0.409090909
     0.772727273     0.454545455     0.409090909
     0.772727273     0.500000000     0.363636364
     0.727272727     0.454545455     0.454545455
     0.772727273     0.454545455     0.500000000
     0.772727273     0.500000000     0.454545455
     0.727272727     0.454545455     0.545454545
     0.727272727     0.500000000     0.590909091
     0.772727273     0.454545455     0.590909091
     0.772727273     0.500000000     0.545454545
     0.727272727     0.454545455     0.636363636
     0.772727273     0.454545455     0.681818182
     0.727272727     0.454545455     0.727272727
     0.727272727     0.500000000     0.772727273
     0.727272727     0.454545455     0.818181818
     0.727272727     0.500000000     0.863636364
     0.772727273     0.454545455     0.863636364
     0.772727273     0.500000000     0.818181818
     0.727272727     0.454545455     0.909090909
     0.772727273     0.454545455     0.954545455
     0.772727273     0.545454545     0.045454545
     0.772727273     0.590909091     0.000000000
     0.727272727     0.545454545     0.090909091
     0.727272727     0.590909091     0.136363636
     0.772727273     0.545454545     0.136363636
     0.772727273     0.590909091     0.090909091
     0.727272727     0.590909091     0.227272727
     0.772727273     0.545454545     0.227272727
     0.772727273     0.590909091     0.181818182
     0.727272727     0.590909091     0.318181818
     0.772727273     0.545454545     0.318181818
     0.727272727     0.545454545     0.363636364
     0.727272727     0.590909091     0.409090909
     0.772727273     0.590909091     0.363636364
     0.727272727     0.545454545     0.454545455
     0.727272727     0.590909091     0.500000000
     0.772727273     0.545454545     0.500000000
     0.772727273     0.590909091     0.454545455
     0.772727273     0.545454545     0.590909091
     0.772727273     0.590909091     0.545454545
     0.727272727     0.590909091     0.681818182
     0.772727273     0.545454545     0.681818182
     0.727272727     0.545454545     0.727272727
     0.727272727     0.590909091     0.772727273
     0.727272727     0.590909091     0.863636364
     0.772727273     0.545454545     0.863636364
     0.772727273     0.590909091     0.818181818
     0.727272727     0.545454545     0.909090909
     0.772727273     0.590909091     0.909090909
     0.727272727     0.636363636     0.000000000
     0.727272727     0.681818182     0.045454545
     0.772727273     0.636363636     0.045454545
     0.772727273     0.681818182     0.000000000
     0.727272727     0.636363636     0.090909091
     0.772727273     0.636363636     0.136363636
     0.772727273     0.681818182     0.090909091
     0.772727273     0.636363636     0.227272727
     0.772727273     0.681818182     0.181818182
     0.727272727     0.636363636     0.272727273
     0.727272727     0.681818182     0.318181818
     0.772727273     0.681818182     0.272727273
     0.727272727     0.681818182     0.409090909
     0.772727273     0.681818182     0.363636364
     0.727272727     0.636363636     0.454545455
     0.727272727     0.636363636     0.545454545
     0.727272727     0.681818182     0.590909091
     0.772727273     0.636363636     0.590909091
     0.772727273     0.681818182     0.545454545
     0.727272727     0.636363636     0.636363636
     0.772727273     0.636363636     0.681818182
     0.727272727     0.681818182     0.772727273
     0.772727273     0.636363636     0.772727273
     0.772727273     0.636363636     0.863636364
     0.772727273     0.681818182     0.818181818
     0.727272727     0.681818182     0.954545455
     0.772727273     0.681818182     0.909090909
     0.727272727     0.772727273     0.045454545
     0.772727273     0.727272727     0.045454545
     0.772727273     0.772727273     0.000000000
     0.727272727     0.727272727     0.090909091
     0.772727273     0.727272727     0.136363636
     0.772727273     0.772727273     0.090909091
     0.727272727     0.727272727     0.181818182
     0.727272727     0.772727273     0.227272727
     0.772727273     0.727272727     0.227272727
     0.772727273     0.772727273     0.181818182
     0.727272727     0.727272727     0.272727273
     0.727272727     0.772727273     0.318181818
     0.772727273     0.727272727     0.318181818
     0.772727273     0.727272727     0.409090909
     0.727272727     0.727272727     0.454545455
     0.727272727     0.772727273     0.500000000
     0.772727273     0.772727273     0.454545455
     0.727272727     0.727272727     0.545454545
     0.727272727     0.772727273     0.590909091
     0.772727273     0.727272727     0.590909091
     0.727272727     0.727272727     0.636363636
     0.727272727     0.772727273     0.681818182
     0.772727273     0.727272727     0.681818182
     0.772727273     0.772727273     0.636363636
     0.727272727     0.727272727     0.727272727
     0.727272727     0.772727273     0.772727273
     0.772727273     0.772727273     0.727272727
     0.727272727     0.727272727     0.818181818
     0.727272727     0.772727273     0.863636364
     0.772727273     0.727272727     0.863636364
     0.727272727     0.727272727     0.909090909
     0.727272727     0.772727273     0.954545455
     0.772727273     0.727272727     0.954545455
     0.772727273     0.772727273     0.909090909
     0.727272727     0.818181818     0.000000000
     0.727272727     0.863636364     0.045454545
     0.772727273     0.818181818     0.045454545
     0.772727273     0.863636364     0.000000000
     0.727272727     0.863636364     0.136363636
     0.772727273     0.818181818     0.227272727
     0.772727273     0.863636364     0.181818182
     0.727272727     0.818181818     0.272727273
     0.727272727     0.863636364     0.318181818
     0.772727273     0.818181818     0.318181818
     0.772727273     0.863636364     0.272727273
     0.727272727     0.818181818     0.363636364
     0.727272727     0.863636364     0.409090909
     0.772727273     0.818181818     0.409090909
     0.772727273     0.863636364     0.363636364
     0.727272727     0.818181818     0.454545455
     0.727272727     0.863636364     0.500000000
     0.772727273     0.863636364     0.454545455
     0.727272727     0.818181818     0.545454545
     0.727272727     0.863636364     0.590909091
     0.772727273     0.818181818     0.590909091
     0.727272727     0.818181818     0.636363636
     0.727272727     0.863636364     0.681818182
     0.772727273     0.818181818     0.681818182
     0.772727273     0.863636364     0.636363636
     0.727272727     0.863636364     0.772727273
     0.772727273     0.818181818     0.772727273
     0.772727273     0.863636364     0.727272727
     0.727272727     0.818181818     0.818181818
     0.727272727     0.863636364     0.863636364
     0.772727273     0.818181818     0.863636364
     0.727272727     0.863636364     0.954545455
     0.772727273     0.818181818     0.954545455
     0.772727273     0.863636364     0.909090909
     0.727272727     0.954545455     0.045454545
     0.772727273     0.954545455     0.000000000
     0.727272727     0.954545455     0.136363636
     0.772727273     0.909090909     0.227272727
     0.772727273     0.954545455     0.181818182
     0.727272727     0.909090909     0.272727273
     0.772727273     0.909090909     0.318181818
     0.772727273     0.954545455     0.272727273
     0.727272727     0.909090909     0.363636364
     0.772727273     0.909090909     0.409090909
     0.727272727     0.909090909     0.454545455
     0.727272727     0.954545455     0.500000000
     0.772727273     0.909090909     0.500000000
     0.772727273     0.954545455     0.454545455
     0.772727273     0.909090909     0.590909091
     0.727272727     0.909090909     0.636363636
     0.727272727     0.954545455     0.681818182
     0.772727273     0.909090909     0.681818182
     0.772727273     0.954545455     0.636363636
     0.727272727     0.909090909     0.727272727
     0.727272727     0.954545455     0.772727273
     0.772727273     0.909090909     0.772727273
     0.772727273     0.954545455     0.727272727
     0.727272727     0.909090909     0.818181818
     0.772727273     0.909090909     0.863636364
     0.772727273     0.954545455     0.818181818
     0.727272727     0.909090909     0.909090909
     0.818181818     0.000000000     0.000000000
     0.818181818     0.045454545     0.045454545
     0.863636364     0.000000000     0.045454545
     0.863636364     0.045454545     0.000000000
     0.863636364     0.000000000     0.136363636
     0.818181818     0.045454545     0.227272727
     0.863636364     0.000000000     0.227272727
     0.818181818     0.000000000     0.272727273
     0.863636364     0.000000000     0.318181818
     0.863636364     0.045454545     0.272727273
     0.818181818     0.000000000     0.363636364
     0.818181818     0.045454545     0.409090909
     0.863636364     0.000000000     0.409090909
     0.863636364     0.045454545     0.363636364
     0.818181818     0.000000000     0.454545455
     0.863636364     0.000000000     0.500000000
     0.863636364     0.045454545     0.454545455
     0.818181818     0.000000000     0.545454545
     0.863636364     0.000000000     0.590909091
     0.863636364     0.045454545     0.545454545
     0.818181818     0.045454545     0.681818182
     0.863636364     0.000000000     0.681818182
     0.863636364     0.045454545     0.636363636
     0.818181818     0.000000000     0.727272727
     0.863636364     0.045454545     0.727272727
     0.818181818     0.000000000     0.818181818
     0.818181818     0.045454545     0.863636364
     0.863636364     0.000000000     0.863636364
     0.863636364     0.045454545     0.818181818
     0.863636364     0.000000000     0.954545455
     0.818181818     0.090909091     0.000000000
     0.818181818     0.136363636     0.045454545
     0.863636364     0.136363636     0.090909091
     0.818181818     0.136363636     0.227272727
     0.863636364     0.090909091     0.227272727
     0.818181818     0.090909091     0.272727273
     0.818181818     0.136363636     0.318181818
     0.863636364     0.136363636     0.272727273
     0.818181818     0.090909091     0.363636364
     0.818181818     0.136363636     0.409090909
     0.863636364     0.090909091     0.409090909
     0.863636364     0.136363636     0.363636364
     0.818181818     0.090909091     0.454545455
     0.818181818     0.136363636     0.500000000
     0.863636364     0.090909091     0.500000000
     0.818181818     0.136363636     0.590909091
     0.863636364     0.090909091     0.590909091
     0.818181818     0.090909091     0.636363636
     0.818181818     0.136363636     0.681818182
     0.863636364     0.090909091     0.681818182
     0.863636364     0.136363636     0.636363636
     0.863636364     0.090909091     0.772727273
     0.818181818     0.136363636     0.863636364
     0.863636364     0.090909091     0.863636364
     0.863636364     0.136363636     0.818181818
     0.818181818     0.090909091     0.909090909
     0.863636364     0.090909091     0.954545455
     0.863636364     0.136363636     0.909090909
     0.818181818     0.181818182     0.000000000
     0.818181818     0.227272727     0.045454545
     0.863636364     0.227272727     0.000000000
     0.818181818     0.227272727     0.136363636
     0.863636364     0.181818182     0.136363636
     0.818181818     0.227272727     0.227272727
     0.863636364     0.227272727     0.181818182
     0.818181818     0.227272727     0.318181818
     0.863636364     0.227272727     0.272727273
     0.818181818     0.181818182     0.363636364
     0.863636364     0.181818182     0.409090909
     0.863636364     0.227272727     0.363636364
     0.818181818     0.227272727     0.500000000
     0.863636364     0.181818182     0.500000000
     0.818181818     0.181818182     0.545454545
     0.818181818     0.227272727     0.590909091
     0.863636364     0.181818182     0.590909091
     0.818181818     0.181818182     0.636363636
     0.818181818     0.227272727     0.681818182
     0.863636364     0.181818182     0.772727273
     0.863636364     0.227272727     0.727272727
     0.818181818     0.181818182     0.818181818
     0.863636364     0.181818182     0.863636364
     0.863636364     0.227272727     0.818181818
     0.818181818     0.227272727     0.954545455
     0.863636364     0.181818182     0.954545455
     0.818181818     0.318181818     0.045454545
     0.863636364     0.318181818     0.000000000
     0.818181818     0.318181818     0.136363636
     0.863636364     0.272727273     0.136363636
     0.863636364     0.318181818     0.090909091
     0.818181818     0.272727273     0.181818182
     0.863636364     0.318181818     0.181818182
     0.863636364     0.272727273     0.318181818
     0.818181818     0.318181818     0.409090909
     0.863636364     0.318181818     0.363636364
     0.818181818     0.272727273     0.454545455
     0.818181818     0.318181818     0.500000000
     0.863636364     0.272727273     0.500000000
     0.818181818     0.318181818     0.590909091
     0.818181818     0.272727273     0.636363636
     0.818181818     0.318181818     0.681818182
     0.863636364     0.318181818     0.636363636
     0.818181818     0.318181818     0.772727273
     0.863636364     0.272727273     0.772727273
     0.818181818     0.318181818     0.863636364
     0.863636364     0.272727273     0.863636364
     0.863636364     0.318181818     0.818181818
     0.818181818     0.272727273     0.909090909
     0.818181818     0.318181818     0.954545455
     0.863636364     0.272727273     0.954545455
     0.863636364     0.318181818     0.909090909
     0.818181818     0.363636364     0.000000000
     0.818181818     0.409090909     0.045454545
     0.863636364     0.363636364     0.045454545
     0.818181818     0.409090909     0.136363636
     0.863636364     0.363636364     0.136363636
     0.863636364     0.409090909     0.090909091
     0.818181818     0.409090909     0.227272727
     0.818181818     0.363636364     0.272727273
     0.863636364     0.363636364     0.318181818
     0.863636364     0.363636364     0.409090909
     0.863636364     0.409090909     0.363636364
     0.863636364     0.363636364     0.500000000
     0.863636364     0.409090909     0.454545455
     0.863636364     0.363636364     0.590909091
     0.863636364     0.409090909     0.545454545
     0.863636364     0.363636364     0.681818182
     0.863636364     0.409090909     0.636363636
     0.818181818     0.409090909     0.772727273
     0.863636364     0.363636364     0.772727273
     0.863636364     0.409090909     0.727272727
     0.863636364     0.409090909     0.818181818
     0.818181818     0.363636364     0.909090909
     0.863636364     0.409090909     0.909090909
     0.818181818     0.454545455     0.000000000
     0.863636364     0.454545455     0.045454545
     0.818181818     0.454545455     0.090909091
     0.863636364     0.454545455     0.136363636
     0.863636364     0.500000000     0.090909091
     0.818181818     0.500000000     0.227272727
     0.863636364     0.454545455     0.227272727
     0.863636364     0.500000000     0.181818182
     0.818181818     0.454545455     0.272727273
     0.863636364     0.454545455     0.318181818
     0.863636364     0.500000000     0.272727273
     0.818181818     0.454545455     0.363636364
     0.818181818     0.500000000     0.409090909
     0.863636364     0.454545455     0.409090909
     0.863636364     0.500000000     0.363636364
     0.818181818     0.454545455     0.454545455
     0.818181818     0.500000000     0.500000000
     0.863636364     0.454545455     0.500000000
     0.863636364     0.500000000     0.454545455
     0.818181818     0.454545455     0.545454545
     0.863636364     0.500000000     0.545454545
     0.818181818     0.454545455     0.636363636
     0.818181818     0.500000000     0.681818182
     0.863636364     0.454545455     0.681818182
     0.863636364     0.500000000     0.636363636
     0.818181818     0.454545455     0.727272727
     0.863636364     0.500000000     0.727272727
     0.818181818     0.454545455     0.818181818
     0.818181818     0.500000000     0.863636364
     0.863636364     0.454545455     0.863636364
     0.863636364     0.500000000     0.818181818
     0.818181818     0.500000000     0.954545455
     0.863636364     0.454545455     0.954545455
     0.818181818     0.545454545     0.000000000
     0.818181818     0.590909091     0.045454545
     0.863636364     0.545454545     0.045454545
     0.818181818     0.590909091     0.136363636
     0.863636364     0.590909091     0.090909091
     0.818181818     0.545454545     0.181818182
     0.818181818     0.590909091     0.227272727
     0.863636364     0.545454545     0.227272727
     0.818181818     0.545454545     0.272727273
     0.818181818     0.590909091     0.318181818
     0.863636364     0.545454545     0.318181818
     0.863636364     0.590909091     0.272727273
     0.818181818     0.545454545     0.363636364
     0.818181818     0.590909091     0.409090909
     0.863636364     0.545454545     0.409090909
     0.863636364     0.590909091     0.363636364
     0.818181818     0.545454545     0.454545455
     0.818181818     0.590909091     0.500000000
     0.863636364     0.590909091     0.454545455
     0.818181818     0.545454545     0.545454545
     0.818181818     0.590909091     0.590909091
     0.863636364     0.545454545     0.590909091
     0.863636364     0.590909091     0.545454545
     0.818181818     0.545454545     0.636363636
     0.818181818     0.590909091     0.681818182
     0.863636364     0.545454545     0.681818182
     0.818181818     0.545454545     0.727272727
     0.818181818     0.590909091     0.772727273
     0.863636364     0.545454545     0.772727273
     0.863636364     0.590909091     0.727272727
     0.818181818     0.545454545     0.818181818
     0.818181818     0.590909091     0.863636364
     0.863636364     0.545454545     0.863636364
     0.863636364     0.590909091     0.818181818
     0.818181818     0.545454545     0.909090909
     0.818181818     0.590909091     0.954545455
     0.863636364     0.545454545     0.954545455
     0.863636364     0.590909091     0.909090909
     0.818181818     0.681818182     0.045454545
     0.863636364     0.636363636     0.045454545
     0.863636364     0.681818182     0.000000000
     0.818181818     0.636363636     0.090909091
     0.818181818     0.681818182     0.136363636
     0.863636364     0.636363636     0.136363636
     0.863636364     0.681818182     0.090909091
     0.818181818     0.636363636     0.181818182
     0.818181818     0.681818182     0.227272727
     0.863636364     0.636363636     0.227272727
     0.863636364     0.681818182     0.181818182
     0.818181818     0.636363636     0.272727273
     0.818181818     0.681818182     0.318181818
     0.863636364     0.636363636     0.318181818
     0.863636364     0.681818182     0.272727273
     0.818181818     0.636363636     0.363636364
     0.818181818     0.681818182     0.409090909
     0.818181818     0.636363636     0.454545455
     0.818181818     0.681818182     0.500000000
     0.863636364     0.636363636     0.500000000
     0.818181818     0.681818182     0.590909091
     0.863636364     0.681818182     0.545454545
     0.818181818     0.681818182     0.681818182
     0.863636364     0.636363636     0.681818182
     0.863636364     0.681818182     0.636363636
     0.818181818     0.636363636     0.727272727
     0.818181818     0.681818182     0.772727273
     0.863636364     0.636363636     0.772727273
     0.863636364     0.681818182     0.727272727
     0.818181818     0.681818182     0.863636364
     0.863636364     0.636363636     0.863636364
     0.863636364     0.681818182     0.818181818
     0.818181818     0.636363636     0.909090909
     0.818181818     0.681818182     0.954545455
     0.863636364     0.636363636     0.954545455
     0.863636364     0.681818182     0.909090909
     0.818181818     0.727272727     0.000000000
     0.863636364     0.727272727     0.045454545
     0.818181818     0.772727273     0.136363636
     0.863636364     0.772727273     0.090909091
     0.818181818     0.727272727     0.181818182
     0.818181818     0.772727273     0.227272727
     0.863636364     0.727272727     0.227272727
     0.863636364     0.772727273     0.181818182
     0.818181818     0.727272727     0.272727273
     0.818181818     0.772727273     0.318181818
     0.863636364     0.727272727     0.318181818
     0.863636364     0.772727273     0.272727273
     0.818181818     0.727272727     0.363636364
     0.818181818     0.772727273     0.409090909
     0.863636364     0.727272727     0.409090909
     0.863636364     0.772727273     0.363636364
     0.818181818     0.727272727     0.454545455
     0.818181818     0.772727273     0.500000000
     0.863636364     0.727272727     0.500000000
     0.863636364     0.772727273     0.454545455
     0.818181818     0.727272727     0.545454545
     0.818181818     0.772727273     0.590909091
     0.863636364     0.727272727     0.590909091
     0.818181818     0.727272727     0.636363636
     0.818181818     0.772727273     0.681818182
     0.863636364     0.727272727     0.681818182
     0.863636364     0.772727273     0.636363636
     0.818181818     0.727272727     0.727272727
     0.818181818     0.772727273     0.772727273
     0.818181818     0.727272727     0.818181818
     0.818181818     0.772727273     0.863636364
     0.863636364     0.772727273     0.818181818
     0.818181818     0.727272727     0.909090909
     0.818181818     0.772727273     0.954545455
     0.818181818     0.818181818     0.000000000
     0.863636364     0.818181818     0.045454545
     0.863636364     0.863636364     0.000000000
     0.818181818     0.818181818     0.090909091
     0.818181818     0.863636364     0.136363636
     0.863636364     0.818181818     0.136363636
     0.863636364     0.863636364     0.090909091
     0.818181818     0.818181818     0.181818182
     0.818181818     0.863636364     0.227272727
     0.863636364     0.818181818     0.227272727
     0.863636364     0.863636364     0.181818182
     0.818181818     0.863636364     0.318181818
     0.863636364     0.818181818     0.318181818
     0.863636364     0.863636364     0.272727273
     0.818181818     0.818181818     0.363636364
     0.818181818     0.863636364     0.409090909
     0.863636364     0.863636364     0.363636364
     0.818181818     0.863636364     0.500000000
     0.863636364     0.818181818     0.500000000
     0.863636364     0.863636364     0.454545455
     0.818181818     0.863636364     0.590909091
     0.863636364     0.818181818     0.590909091
     0.818181818     0.818181818     0.636363636
     0.818181818     0.863636364     0.681818182
     0.863636364     0.818181818     0.681818182
     0.863636364     0.863636364     0.636363636
     0.818181818     0.818181818     0.727272727
     0.818181818     0.863636364     0.772727273
     0.863636364     0.863636364     0.727272727
     0.818181818     0.818181818     0.818181818
     0.818181818     0.863636364     0.863636364
     0.863636364     0.818181818     0.863636364
     0.863636364     0.863636364     0.818181818
     0.863636364     0.818181818     0.954545455
     0.818181818     0.954545455     0.045454545
     0.863636364     0.954545455     0.000000000
     0.818181818     0.909090909     0.090909091
     0.863636364     0.909090909     0.136363636
     0.863636364     0.954545455     0.090909091
     0.818181818     0.909090909     0.181818182
     0.818181818     0.954545455     0.227272727
     0.863636364     0.909090909     0.227272727
     0.863636364     0.954545455     0.181818182
     0.818181818     0.909090909     0.272727273
     0.863636364     0.954545455     0.272727273
     0.818181818     0.909090909     0.363636364
     0.818181818     0.954545455     0.409090909
     0.863636364     0.909090909     0.409090909
     0.818181818     0.954545455     0.500000000
     0.863636364     0.909090909     0.500000000
     0.863636364     0.954545455     0.454545455
     0.818181818     0.909090909     0.545454545
     0.863636364     0.909090909     0.590909091
     0.863636364     0.954545455     0.545454545
     0.818181818     0.909090909     0.636363636
     0.863636364     0.909090909     0.681818182
     0.863636364     0.954545455     0.636363636
     0.818181818     0.909090909     0.727272727
     0.863636364     0.954545455     0.727272727
     0.818181818     0.909090909     0.818181818
     0.818181818     0.954545455     0.863636364
     0.863636364     0.954545455     0.818181818
     0.818181818     0.909090909     0.909090909
     0.818181818     0.954545455     0.954545455
     0.863636364     0.909090909     0.954545455
     0.863636364     0.954545455     0.909090909
     0.909090909     0.000000000     0.000000000
     0.954545455     0.000000000     0.045454545
     0.954545455     0.045454545     0.090909091
     0.909090909     0.000000000     0.181818182
     0.909090909     0.045454545     0.227272727
     0.954545455     0.000000000     0.227272727
     0.909090909     0.045454545     0.318181818
     0.909090909     0.000000000     0.363636364
     0.954545455     0.045454545     0.363636364
     0.909090909     0.045454545     0.500000000
     0.954545455     0.045454545     0.454545455
     0.909090909     0.045454545     0.590909091
     0.909090909     0.045454545     0.681818182
     0.954545455     0.045454545     0.636363636
     0.909090909     0.045454545     0.772727273
     0.954545455     0.045454545     0.727272727
     0.909090909     0.000000000     0.818181818
     0.909090909     0.045454545     0.863636364
     0.954545455     0.000000000     0.863636364
     0.909090909     0.000000000     0.909090909
     0.909090909     0.045454545     0.954545455
     0.954545455     0.000000000     0.954545455
     0.954545455     0.045454545     0.909090909
     0.954545455     0.136363636     0.000000000
     0.909090909     0.090909091     0.090909091
     0.954545455     0.090909091     0.136363636
     0.954545455     0.136363636     0.090909091
     0.909090909     0.090909091     0.181818182
     0.909090909     0.136363636     0.227272727
     0.954545455     0.090909091     0.227272727
     0.954545455     0.136363636     0.181818182
     0.909090909     0.090909091     0.272727273
     0.954545455     0.090909091     0.318181818
     0.909090909     0.090909091     0.363636364
     0.909090909     0.136363636     0.409090909
     0.909090909     0.090909091     0.454545455
     0.909090909     0.136363636     0.500000000
     0.954545455     0.090909091     0.500000000
     0.954545455     0.136363636     0.454545455
     0.909090909     0.090909091     0.545454545
     0.909090909     0.136363636     0.590909091
     0.954545455     0.136363636     0.545454545
     0.909090909     0.090909091     0.636363636
     0.909090909     0.136363636     0.681818182
     0.954545455     0.090909091     0.681818182
     0.954545455     0.136363636     0.636363636
     0.909090909     0.090909091     0.727272727
     0.909090909     0.136363636     0.772727273
     0.954545455     0.090909091     0.772727273
     0.909090909     0.090909091     0.818181818
     0.909090909     0.136363636     0.863636364
     0.954545455     0.136363636     0.818181818
     0.909090909     0.090909091     0.909090909
     0.954545455     0.090909091     0.954545455
     0.954545455     0.136363636     0.909090909
     0.909090909     0.181818182     0.000000000
     0.954545455     0.181818182     0.045454545
     0.909090909     0.181818182     0.090909091
     0.954545455     0.181818182     0.136363636
     0.954545455     0.227272727     0.090909091
     0.909090909     0.227272727     0.227272727
     0.954545455     0.181818182     0.227272727
     0.954545455     0.227272727     0.181818182
     0.909090909     0.227272727     0.318181818
     0.954545455     0.227272727     0.272727273
     0.909090909     0.181818182     0.363636364
     0.909090909     0.227272727     0.409090909
     0.954545455     0.181818182     0.409090909
     0.954545455     0.227272727     0.363636364
     0.909090909     0.181818182     0.454545455
     0.909090909     0.227272727     0.500000000
     0.954545455     0.181818182     0.500000000
     0.954545455     0.227272727     0.454545455
     0.909090909     0.181818182     0.545454545
     0.954545455     0.181818182     0.590909091
     0.954545455     0.227272727     0.545454545
     0.954545455     0.181818182     0.681818182
     0.954545455     0.227272727     0.636363636
     0.909090909     0.181818182     0.727272727
     0.909090909     0.227272727     0.772727273
     0.954545455     0.181818182     0.772727273
     0.954545455     0.227272727     0.727272727
     0.909090909     0.181818182     0.818181818
     0.954545455     0.227272727     0.818181818
     0.909090909     0.181818182     0.909090909
     0.954545455     0.181818182     0.954545455
     0.954545455     0.227272727     0.909090909
     0.909090909     0.272727273     0.000000000
     0.909090909     0.318181818     0.045454545
     0.954545455     0.272727273     0.045454545
     0.954545455     0.318181818     0.000000000
     0.909090909     0.272727273     0.090909091
     0.954545455     0.272727273     0.136363636
     0.954545455     0.318181818     0.090909091
     0.909090909     0.272727273     0.181818182
     0.909090909     0.318181818     0.227272727
     0.954545455     0.318181818     0.181818182
     0.909090909     0.318181818     0.318181818
     0.954545455     0.318181818     0.272727273
     0.954545455     0.318181818     0.363636364
     0.909090909     0.272727273     0.454545455
     0.909090909     0.318181818     0.500000000
     0.954545455     0.272727273     0.500000000
     0.954545455     0.318181818     0.454545455
     0.909090909     0.272727273     0.545454545
     0.909090909     0.318181818     0.590909091
     0.954545455     0.318181818     0.545454545
     0.909090909     0.272727273     0.636363636
     0.909090909     0.318181818     0.681818182
     0.954545455     0.318181818     0.636363636
     0.909090909     0.272727273     0.727272727
     0.909090909     0.318181818     0.772727273
     0.954545455     0.272727273     0.772727273
     0.909090909     0.272727273     0.818181818
     0.909090909     0.318181818     0.863636364
     0.954545455     0.272727273     0.863636364
     0.954545455     0.318181818     0.818181818
     0.909090909     0.318181818     0.954545455
     0.954545455     0.272727273     0.954545455
     0.909090909     0.363636364     0.000000000
     0.909090909     0.409090909     0.045454545
     0.954545455     0.363636364     0.045454545
     0.954545455     0.409090909     0.000000000
     0.909090909     0.363636364     0.090909091
     0.909090909     0.409090909     0.136363636
     0.954545455     0.409090909     0.090909091
     0.909090909     0.363636364     0.181818182
     0.909090909     0.409090909     0.227272727
     0.954545455     0.363636364     0.227272727
     0.954545455     0.409090909     0.181818182
     0.909090909     0.363636364     0.272727273
     0.909090909     0.363636364     0.363636364
     0.909090909     0.409090909     0.409090909
     0.954545455     0.363636364     0.409090909
     0.954545455     0.409090909     0.363636364
     0.909090909     0.409090909     0.500000000
     0.954545455     0.363636364     0.500000000
     0.954545455     0.409090909     0.454545455
     0.909090909     0.409090909     0.590909091
     0.954545455     0.363636364     0.590909091
     0.954545455     0.409090909     0.545454545
     0.909090909     0.409090909     0.681818182
     0.954545455     0.363636364     0.681818182
     0.909090909     0.363636364     0.727272727
     0.909090909     0.409090909     0.772727273
     0.954545455     0.363636364     0.772727273
     0.954545455     0.409090909     0.727272727
     0.909090909     0.363636364     0.818181818
     0.909090909     0.409090909     0.863636364
     0.954545455     0.409090909     0.818181818
     0.909090909     0.363636364     0.909090909
     0.954545455     0.409090909     0.909090909
     0.909090909     0.454545455     0.000000000
     0.909090909     0.500000000     0.045454545
     0.954545455     0.500000000     0.000000000
     0.909090909     0.454545455     0.090909091
     0.909090909     0.500000000     0.136363636
     0.954545455     0.454545455     0.136363636
     0.954545455     0.500000000     0.090909091
     0.909090909     0.454545455     0.181818182
     0.909090909     0.500000000     0.227272727
     0.954545455     0.454545455     0.227272727
     0.954545455     0.500000000     0.181818182
     0.909090909     0.500000000     0.318181818
     0.954545455     0.454545455     0.318181818
     0.909090909     0.500000000     0.409090909
     0.954545455     0.454545455     0.409090909
     0.909090909     0.454545455     0.454545455
     0.909090909     0.500000000     0.500000000
     0.909090909     0.454545455     0.545454545
     0.954545455     0.500000000     0.545454545
     0.954545455     0.454545455     0.681818182
     0.909090909     0.454545455     0.727272727
     0.909090909     0.500000000     0.772727273
     0.954545455     0.454545455     0.772727273
     0.909090909     0.500000000     0.863636364
     0.954545455     0.454545455     0.863636364
     0.954545455     0.500000000     0.818181818
     0.909090909     0.454545455     0.909090909
     0.954545455     0.454545455     0.954545455
     0.954545455     0.500000000     0.909090909
     0.909090909     0.590909091     0.045454545
     0.954545455     0.545454545     0.045454545
     0.909090909     0.545454545     0.090909091
     0.909090909     0.590909091     0.136363636
     0.954545455     0.545454545     0.136363636
     0.954545455     0.590909091     0.090909091
     0.909090909     0.545454545     0.181818182
     0.909090909     0.590909091     0.227272727
     0.954545455     0.545454545     0.227272727
     0.909090909     0.545454545     0.272727273
     0.909090909     0.590909091     0.318181818
     0.909090909     0.545454545     0.363636364
     0.909090909     0.590909091     0.409090909
     0.954545455     0.545454545     0.409090909
     0.954545455     0.545454545     0.500000000
     0.954545455     0.590909091     0.454545455
     0.909090909     0.545454545     0.545454545
     0.909090909     0.590909091     0.590909091
     0.954545455     0.545454545     0.590909091
     0.954545455     0.590909091     0.545454545
     0.909090909     0.545454545     0.636363636
     0.909090909     0.590909091     0.681818182
     0.954545455     0.545454545     0.681818182
     0.954545455     0.590909091     0.636363636
     0.909090909     0.545454545     0.727272727
     0.909090909     0.590909091     0.772727273
     0.954545455     0.590909091     0.727272727
     0.909090909     0.590909091     0.863636364
     0.954545455     0.545454545     0.863636364
     0.954545455     0.590909091     0.818181818
     0.909090909     0.545454545     0.909090909
     0.909090909     0.590909091     0.954545455
     0.954545455     0.545454545     0.954545455
     0.954545455     0.590909091     0.909090909
     0.909090909     0.636363636     0.000000000
     0.909090909     0.681818182     0.045454545
     0.954545455     0.681818182     0.000000000
     0.909090909     0.636363636     0.090909091
     0.909090909     0.681818182     0.136363636
     0.954545455     0.636363636     0.136363636
     0.954545455     0.681818182     0.090909091
     0.909090909     0.636363636     0.181818182
     0.954545455     0.636363636     0.227272727
     0.954545455     0.636363636     0.318181818
     0.909090909     0.636363636     0.363636364
     0.909090909     0.681818182     0.409090909
     0.954545455     0.681818182     0.363636364
     0.909090909     0.636363636     0.454545455
     0.954545455     0.636363636     0.500000000
     0.909090909     0.681818182     0.590909091
     0.954545455     0.636363636     0.590909091
     0.954545455     0.681818182     0.545454545
     0.909090909     0.681818182     0.681818182
     0.954545455     0.636363636     0.681818182
     0.954545455     0.681818182     0.636363636
     0.909090909     0.636363636     0.727272727
     0.909090909     0.681818182     0.772727273
     0.954545455     0.681818182     0.727272727
     0.909090909     0.636363636     0.818181818
     0.909090909     0.681818182     0.863636364
     0.954545455     0.636363636     0.863636364
     0.909090909     0.681818182     0.954545455
     0.909090909     0.772727273     0.045454545
     0.954545455     0.727272727     0.045454545
     0.954545455     0.772727273     0.000000000
     0.909090909     0.727272727     0.090909091
     0.954545455     0.772727273     0.090909091
     0.909090909     0.727272727     0.181818182
     0.954545455     0.727272727     0.227272727
     0.954545455     0.772727273     0.181818182
     0.909090909     0.727272727     0.272727273
     0.909090909     0.772727273     0.318181818
     0.954545455     0.772727273     0.272727273
     0.909090909     0.772727273     0.409090909
     0.954545455     0.772727273     0.363636364
     0.909090909     0.727272727     0.454545455
     0.954545455     0.772727273     0.454545455
     0.909090909     0.772727273     0.590909091
     0.954545455     0.727272727     0.590909091
     0.954545455     0.772727273     0.545454545
     0.909090909     0.727272727     0.636363636
     0.909090909     0.772727273     0.681818182
     0.954545455     0.772727273     0.636363636
     0.909090909     0.772727273     0.772727273
     0.954545455     0.727272727     0.772727273
     0.954545455     0.772727273     0.727272727
     0.909090909     0.772727273     0.863636364
     0.954545455     0.727272727     0.863636364
     0.954545455     0.772727273     0.818181818
     0.909090909     0.772727273     0.954545455
     0.954545455     0.727272727     0.954545455
     0.954545455     0.772727273     0.909090909
     0.909090909     0.818181818     0.000000000
     0.909090909     0.863636364     0.045454545
     0.909090909     0.818181818     0.090909091
     0.909090909     0.863636364     0.136363636
     0.954545455     0.818181818     0.136363636
     0.954545455     0.863636364     0.090909091
     0.909090909     0.818181818     0.181818182
     0.909090909     0.863636364     0.227272727
     0.909090909     0.818181818     0.272727273
     0.909090909     0.863636364     0.318181818
     0.954545455     0.818181818     0.318181818
     0.954545455     0.863636364     0.272727273
     0.909090909     0.818181818     0.363636364
     0.954545455     0.818181818     0.409090909
     0.954545455     0.863636364     0.363636364
     0.954545455     0.818181818     0.500000000
     0.954545455     0.863636364     0.454545455
     0.909090909     0.818181818     0.545454545
     0.954545455     0.863636364     0.545454545
     0.909090909     0.818181818     0.636363636
     0.954545455     0.863636364     0.636363636
     0.909090909     0.863636364     0.772727273
     0.954545455     0.818181818     0.772727273
     0.954545455     0.863636364     0.727272727
     0.909090909     0.863636364     0.863636364
     0.954545455     0.863636364     0.818181818
     0.909090909     0.863636364     0.954545455
     0.954545455     0.818181818     0.954545455
     0.954545455     0.863636364     0.909090909
     0.909090909     0.954545455     0.045454545
     0.954545455     0.909090909     0.045454545
     0.954545455     0.954545455     0.000000000
     0.909090909     0.909090909     0.090909091
     0.954545455     0.909090909     0.136363636
     0.954545455     0.954545455     0.090909091
     0.909090909     0.954545455     0.227272727
     0.954545455     0.909090909     0.227272727
     0.909090909     0.909090909     0.272727273
     0.909090909     0.954545455     0.318181818
     0.954545455     0.909090909     0.318181818
     0.909090909     0.909090909     0.363636364
     0.909090909     0.954545455     0.409090909
     0.954545455     0.954545455     0.363636364
     0.954545455     0.909090909     0.500000000
     0.954545455     0.954545455     0.454545455
     0.909090909     0.954545455     0.590909091
     0.954545455     0.909090909     0.590909091
     0.954545455     0.954545455     0.545454545
     0.909090909     0.909090909     0.636363636
     0.954545455     0.909090909     0.681818182
     0.909090909     0.954545455     0.772727273
     0.954545455     0.909090909     0.772727273
     0.954545455     0.954545455     0.727272727
     0.909090909     0.909090909     0.818181818
     0.909090909     0.954545455     0.863636364
     0.954545455     0.909090909     0.863636364
     0.909090909     0.909090909     0.909090909
     0.954545455     0.909090909     0.954545455