10×10×10 Sample_018 Score_0.8701 Seed_1781197201
1.0
    34.751458659     0.000000000     0.000000000
     0.000000000    34.751458659     0.000000000
     0.000000000     0.000000000    34.751458659
Al B C Cr Fe Mo Ni
80 80 80 336 144 400 2880
Direct
     0.000000000     0.150000000     0.250000000
     0.050000000     0.200000000     0.550000000
     0.050000000     0.800000000     0.550000000
     0.000000000     0.950000000     0.750000000
     0.150000000     0.050000000     0.200000000
     0.100000000     0.350000000     0.250000000
     0.100000000     0.450000000     0.350000000
     0.150000000     0.400000000     0.650000000
     0.150000000     0.650000000     0.900000000
     0.100000000     0.750000000     0.350000000
     0.100000000     0.700000000     0.700000000
     0.100000000     0.850000000     0.750000000
     0.100000000     0.900000000     0.000000000
     0.150000000     0.900000000     0.750000000
     0.250000000     0.150000000     0.200000000
     0.200000000     0.600000000     0.700000000
     0.300000000     0.000000000     0.200000000
     0.350000000     0.050000000     0.600000000
     0.350000000     0.000000000     0.850000000
     0.350000000     0.050000000     0.800000000
     0.350000000     0.200000000     0.550000000
     0.300000000     0.200000000     0.700000000
     0.300000000     0.450000000     0.350000000
     0.350000000     0.600000000     0.250000000
     0.350000000     0.750000000     0.800000000
     0.300000000     0.850000000     0.850000000
     0.350000000     0.900000000     0.950000000
     0.400000000     0.300000000     0.900000000
     0.450000000     0.450000000     0.700000000
     0.450000000     0.750000000     0.000000000
     0.400000000     0.700000000     0.300000000
     0.450000000     0.750000000     0.600000000
     0.400000000     0.700000000     0.800000000
     0.450000000     0.800000000     0.250000000
     0.450000000     0.800000000     0.550000000
     0.400000000     0.950000000     0.150000000
     0.400000000     0.900000000     0.800000000
     0.550000000     0.350000000     0.900000000
     0.550000000     0.400000000     0.850000000
     0.550000000     0.650000000     0.500000000
     0.500000000     0.700000000     0.400000000
     0.550000000     0.850000000     0.800000000
     0.600000000     0.250000000     0.550000000
     0.650000000     0.200000000     0.550000000
     0.650000000     0.500000000     0.450000000
     0.600000000     0.650000000     0.350000000
     0.600000000     0.650000000     0.550000000
     0.650000000     0.750000000     0.300000000
     0.650000000     0.750000000     0.900000000
     0.700000000     0.200000000     0.000000000
     0.750000000     0.300000000     0.450000000
     0.700000000     0.500000000     0.100000000
     0.700000000     0.500000000     0.900000000
     0.700000000     0.650000000     0.450000000
     0.750000000     0.750000000     0.100000000
     0.750000000     0.700000000     0.650000000
     0.750000000     0.800000000     0.150000000
     0.850000000     0.200000000     0.950000000
     0.800000000     0.300000000     0.800000000
     0.800000000     0.400000000     0.600000000
     0.800000000     0.450000000     0.650000000
     0.800000000     0.500000000     0.400000000
     0.800000000     0.600000000     0.200000000
     0.800000000     0.650000000     0.950000000
     0.800000000     0.850000000     0.450000000
     0.850000000     0.950000000     0.000000000
     0.900000000     0.050000000     0.550000000
     0.900000000     0.050000000     0.650000000
     0.900000000     0.150000000     0.550000000
     0.950000000     0.150000000     0.600000000
     0.950000000     0.250000000     0.200000000
     0.950000000     0.250000000     0.600000000
     0.900000000     0.250000000     0.950000000
     0.950000000     0.350000000     0.300000000
     0.900000000     0.350000000     0.950000000
     0.950000000     0.500000000     0.150000000
     0.900000000     0.600000000     0.400000000
     0.950000000     0.800000000     0.150000000
     0.900000000     0.800000000     0.300000000
     0.900000000     0.950000000     0.350000000
     0.000000000     0.100000000     0.000000000
     0.000000000     0.100000000     0.300000000
     0.000000000     0.150000000     0.450000000
     0.000000000     0.150000000     0.650000000
     0.000000000     0.500000000     0.600000000
     0.000000000     0.600000000     0.700000000
     0.050000000     0.750000000     0.300000000
     0.050000000     0.700000000     0.450000000
     0.000000000     0.700000000     0.800000000
     0.100000000     0.050000000     0.250000000
     0.100000000     0.000000000     0.800000000
     0.100000000     0.000000000     0.900000000
     0.150000000     0.250000000     0.100000000
     0.100000000     0.200000000     0.900000000
     0.100000000     0.350000000     0.150000000
     0.150000000     0.450000000     0.900000000
     0.150000000     0.550000000     0.100000000
     0.150000000     0.500000000     0.450000000
     0.150000000     0.550000000     0.500000000
     0.250000000     0.250000000     0.200000000
     0.200000000     0.250000000     0.850000000
     0.200000000     0.500000000     0.100000000
     0.250000000     0.500000000     0.850000000
     0.200000000     0.600000000     0.200000000
     0.250000000     0.600000000     0.450000000
     0.200000000     0.850000000     0.050000000
     0.200000000     0.800000000     0.200000000
     0.200000000     0.850000000     0.550000000
     0.300000000     0.150000000     0.350000000
     0.300000000     0.250000000     0.650000000
     0.350000000     0.550000000     0.400000000
     0.350000000     0.550000000     0.700000000
     0.300000000     0.600000000     0.700000000
     0.350000000     0.700000000     0.350000000
     0.350000000     0.850000000     0.500000000
     0.450000000     0.550000000     0.000000000
     0.450000000     0.650000000     0.400000000
     0.550000000     0.100000000     0.350000000
     0.550000000     0.200000000     0.750000000
     0.550000000     0.250000000     0.700000000
     0.500000000     0.400000000     0.300000000
     0.550000000     0.450000000     0.300000000
     0.500000000     0.550000000     0.850000000
     0.500000000     0.950000000     0.150000000
     0.600000000     0.000000000     0.900000000
     0.600000000     0.150000000     0.150000000
     0.650000000     0.250000000     0.800000000
     0.600000000     0.350000000     0.750000000
     0.600000000     0.450000000     0.350000000
     0.600000000     0.450000000     0.650000000
     0.650000000     0.550000000     0.100000000
     0.650000000     0.500000000     0.250000000
     0.600000000     0.750000000     0.150000000
     0.600000000     0.750000000     0.850000000
     0.600000000     0.850000000     0.250000000
     0.650000000     0.950000000     0.100000000
     0.600000000     0.900000000     0.800000000
     0.750000000     0.000000000     0.950000000
     0.700000000     0.200000000     0.700000000
     0.750000000     0.450000000     0.200000000
     0.750000000     0.700000000     0.150000000
     0.750000000     0.900000000     0.850000000
     0.750000000     0.900000000     0.950000000
     0.850000000     0.000000000     0.150000000
     0.850000000     0.150000000     0.300000000
     0.800000000     0.350000000     0.350000000
     0.850000000     0.350000000     0.300000000
     0.850000000     0.400000000     0.750000000
     0.850000000     0.550000000     0.000000000
     0.850000000     0.550000000     0.700000000
     0.800000000     0.650000000     0.650000000
     0.850000000     0.700000000     0.250000000
     0.800000000     0.850000000     0.250000000
     0.950000000     0.050000000     0.300000000
     0.900000000     0.250000000     0.850000000
     0.950000000     0.300000000     0.650000000
     0.950000000     0.550000000     0.300000000
     0.950000000     0.750000000     0.500000000
     0.900000000     0.850000000     0.150000000
     0.900000000     0.950000000     0.950000000
     0.050000000     0.000000000     0.750000000
     0.050000000     0.100000000     0.250000000
     0.000000000     0.200000000     0.100000000
     0.050000000     0.200000000     0.250000000
     0.000000000     0.450000000     0.550000000
     0.000000000     0.550000000     0.450000000
     0.000000000     0.750000000     0.850000000
     0.000000000     0.900000000     0.300000000
     0.150000000     0.000000000     0.850000000
     0.100000000     0.050000000     0.950000000
     0.150000000     0.100000000     0.650000000
     0.100000000     0.250000000     0.150000000
     0.150000000     0.250000000     0.200000000
     0.150000000     0.250000000     0.300000000
     0.100000000     0.300000000     0.100000000
     0.100000000     0.700000000     0.400000000
     0.100000000     0.800000000     0.100000000
     0.100000000     0.850000000     0.250000000
     0.100000000     0.850000000     0.850000000
     0.200000000     0.000000000     0.000000000
     0.250000000     0.050000000     0.600000000
     0.250000000     0.050000000     0.800000000
     0.250000000     0.150000000     0.000000000
     0.200000000     0.200000000     0.200000000
     0.250000000     0.250000000     0.600000000
     0.200000000     0.350000000     0.450000000
     0.200000000     0.400000000     0.200000000
     0.200000000     0.650000000     0.850000000
     0.250000000     0.800000000     0.150000000
     0.300000000     0.250000000     0.050000000
     0.300000000     0.300000000     0.400000000
     0.350000000     0.400000000     0.550000000
     0.300000000     0.450000000     0.950000000
     0.300000000     0.500000000     0.800000000
     0.400000000     0.050000000     0.250000000
     0.400000000     0.000000000     0.400000000
     0.400000000     0.150000000     0.450000000
     0.400000000     0.450000000     0.950000000
     0.400000000     0.500000000     0.700000000
     0.400000000     0.600000000     0.100000000
     0.400000000     0.700000000     0.400000000
     0.450000000     0.700000000     0.750000000
     0.400000000     0.850000000     0.750000000
     0.450000000     0.900000000     0.350000000
     0.500000000     0.000000000     0.100000000
     0.550000000     0.000000000     0.150000000
     0.550000000     0.150000000     0.000000000
     0.500000000     0.150000000     0.950000000
     0.550000000     0.500000000     0.050000000
     0.550000000     0.500000000     0.750000000
     0.500000000     0.800000000     0.600000000
     0.500000000     0.850000000     0.850000000
     0.550000000     0.900000000     0.250000000
     0.650000000     0.050000000     0.100000000
     0.600000000     0.100000000     0.200000000
     0.600000000     0.200000000     0.500000000
     0.650000000     0.300000000     0.150000000
     0.650000000     0.650000000     0.800000000
     0.650000000     0.650000000     0.900000000
     0.700000000     0.200000000     0.200000000
     0.700000000     0.350000000     0.550000000
     0.750000000     0.300000000     0.550000000
     0.750000000     0.350000000     0.800000000
     0.700000000     0.300000000     0.900000000
     0.750000000     0.550000000     0.200000000
     0.700000000     0.500000000     0.700000000
     0.700000000     0.700000000     0.400000000
     0.850000000     0.050000000     0.200000000
     0.800000000     0.000000000     0.900000000
     0.850000000     0.500000000     0.250000000
     0.850000000     0.650000000     0.500000000
     0.850000000     0.800000000     0.850000000
     0.800000000     0.950000000     0.150000000
     0.800000000     0.950000000     0.450000000
     0.950000000     0.300000000     0.250000000
     0.900000000     0.400000000     0.500000000
     0.900000000     0.500000000     0.700000000
     0.950000000     0.600000000     0.550000000
     0.900000000     0.800000000     0.500000000
     0.950000000     0.900000000     0.050000000
     0.000000000     0.000000000     0.000000000
     0.050000000     0.000000000     0.150000000
     0.050000000     0.050000000     0.500000000
     0.000000000     0.000000000     0.700000000
     0.000000000     0.050000000     0.850000000
     0.050000000     0.050000000     0.800000000
     0.000000000     0.150000000     0.550000000
     0.050000000     0.100000000     0.550000000
     0.050000000     0.100000000     0.650000000
     0.000000000     0.350000000     0.050000000
     0.000000000     0.300000000     0.400000000
     0.000000000     0.350000000     0.450000000
     0.000000000     0.450000000     0.350000000
     0.050000000     0.450000000     0.400000000
     0.050000000     0.450000000     0.500000000
     0.000000000     0.400000000     0.600000000
     0.050000000     0.400000000     0.650000000
     0.000000000     0.450000000     0.950000000
     0.050000000     0.450000000     0.900000000
     0.050000000     0.500000000     0.550000000
     0.050000000     0.700000000     0.250000000
     0.000000000     0.700000000     0.500000000
     0.000000000     0.750000000     0.650000000
     0.000000000     0.700000000     0.900000000
     0.000000000     0.750000000     0.950000000
     0.000000000     0.800000000     0.400000000
     0.000000000     0.800000000     0.500000000
     0.050000000     0.850000000     0.500000000
     0.050000000     0.850000000     0.600000000
     0.050000000     0.800000000     0.750000000
     0.100000000     0.050000000     0.050000000
     0.100000000     0.000000000     0.400000000
     0.150000000     0.050000000     0.600000000
     0.150000000     0.100000000     0.350000000
     0.100000000     0.150000000     0.750000000
     0.100000000     0.250000000     0.550000000
     0.100000000     0.350000000     0.050000000
     0.100000000     0.300000000     0.300000000
     0.100000000     0.350000000     0.650000000
     0.100000000     0.400000000     0.000000000
     0.100000000     0.450000000     0.050000000
     0.150000000     0.400000000     0.150000000
     0.150000000     0.450000000     0.300000000
     0.150000000     0.400000000     0.550000000
     0.100000000     0.450000000     0.950000000
     0.150000000     0.500000000     0.250000000
     0.100000000     0.550000000     0.650000000
     0.100000000     0.500000000     0.700000000
     0.150000000     0.500000000     0.850000000
     0.100000000     0.550000000     0.950000000
     0.150000000     0.600000000     0.350000000
     0.100000000     0.650000000     0.450000000
     0.150000000     0.600000000     0.450000000
     0.100000000     0.600000000     0.600000000
     0.100000000     0.650000000     0.750000000
     0.100000000     0.700000000     0.500000000
     0.150000000     0.750000000     0.600000000
     0.100000000     0.750000000     0.850000000
     0.100000000     0.800000000     0.000000000
     0.150000000     0.800000000     0.650000000
     0.150000000     0.850000000     0.800000000
     0.100000000     0.900000000     0.300000000
     0.150000000     0.950000000     0.400000000
     0.150000000     0.900000000     0.550000000
     0.150000000     0.900000000     0.850000000
     0.150000000     0.950000000     0.800000000
     0.250000000     0.000000000     0.650000000
     0.200000000     0.000000000     0.800000000
     0.200000000     0.050000000     0.850000000
     0.200000000     0.100000000     0.700000000
     0.200000000     0.150000000     0.750000000
     0.250000000     0.200000000     0.050000000
     0.200000000     0.200000000     0.800000000
     0.250000000     0.250000000     0.800000000
     0.200000000     0.300000000     0.100000000
     0.200000000     0.350000000     0.250000000
     0.250000000     0.400000000     0.150000000
     0.250000000     0.450000000     0.100000000
     0.250000000     0.450000000     0.900000000
     0.250000000     0.550000000     0.300000000
     0.250000000     0.550000000     0.400000000
     0.200000000     0.500000000     0.500000000
     0.250000000     0.500000000     0.650000000
     0.250000000     0.550000000     0.700000000
     0.200000000     0.500000000     0.900000000
     0.250000000     0.600000000     0.150000000
     0.250000000     0.650000000     0.100000000
     0.250000000     0.650000000     0.800000000
     0.200000000     0.650000000     0.950000000
     0.200000000     0.700000000     0.700000000
     0.250000000     0.750000000     0.900000000
     0.200000000     0.850000000     0.950000000
     0.250000000     0.950000000     0.200000000
     0.350000000     0.000000000     0.150000000
     0.350000000     0.000000000     0.350000000
     0.350000000     0.000000000     0.750000000
     0.350000000     0.100000000     0.150000000
     0.350000000     0.200000000     0.050000000
     0.300000000     0.250000000     0.750000000
     0.350000000     0.300000000     0.350000000
     0.350000000     0.350000000     0.400000000
     0.300000000     0.300000000     0.700000000
     0.300000000     0.400000000     0.200000000
     0.300000000     0.400000000     0.500000000
     0.350000000     0.450000000     0.500000000
     0.300000000     0.450000000     0.650000000
     0.300000000     0.450000000     0.850000000
     0.300000000     0.500000000     0.200000000
     0.350000000     0.550000000     0.200000000
     0.350000000     0.500000000     0.350000000
     0.300000000     0.550000000     0.450000000
     0.350000000     0.500000000     0.650000000
     0.350000000     0.550000000     0.600000000
     0.300000000     0.500000000     0.700000000
     0.300000000     0.650000000     0.550000000
     0.350000000     0.650000000     0.600000000
     0.300000000     0.700000000     0.000000000
     0.300000000     0.750000000     0.050000000
     0.350000000     0.700000000     0.050000000
     0.300000000     0.700000000     0.800000000
     0.300000000     0.750000000     0.950000000
     0.350000000     0.850000000     0.100000000
     0.300000000     0.800000000     0.400000000
     0.300000000     0.850000000     0.450000000
     0.350000000     0.850000000     0.600000000
     0.300000000     0.850000000     0.750000000
     0.300000000     0.900000000     0.300000000
     0.300000000     0.950000000     0.350000000
     0.350000000     0.950000000     0.500000000
     0.350000000     0.950000000     0.800000000
     0.300000000     0.950000000     0.950000000
     0.450000000     0.000000000     0.050000000
     0.450000000     0.000000000     0.350000000
     0.450000000     0.050000000     0.300000000
     0.450000000     0.000000000     0.850000000
     0.450000000     0.100000000     0.350000000
     0.450000000     0.100000000     0.450000000
     0.450000000     0.150000000     0.400000000
     0.400000000     0.100000000     0.800000000
     0.400000000     0.100000000     0.900000000
     0.400000000     0.200000000     0.000000000
     0.400000000     0.200000000     0.100000000
     0.450000000     0.250000000     0.900000000
     0.450000000     0.300000000     0.050000000
     0.450000000     0.350000000     0.000000000
     0.450000000     0.350000000     0.500000000
     0.400000000     0.350000000     0.750000000
     0.450000000     0.300000000     0.950000000
     0.450000000     0.450000000     0.500000000
     0.450000000     0.400000000     0.850000000
     0.400000000     0.550000000     0.450000000
     0.450000000     0.550000000     0.600000000
     0.450000000     0.600000000     0.850000000
     0.450000000     0.750000000     0.100000000
     0.450000000     0.700000000     0.550000000
     0.400000000     0.700000000     0.600000000
     0.450000000     0.850000000     0.300000000
     0.450000000     0.800000000     0.750000000
     0.550000000     0.050000000     0.100000000
     0.550000000     0.000000000     0.250000000
     0.550000000     0.050000000     0.500000000
     0.550000000     0.000000000     0.750000000
     0.500000000     0.000000000     0.900000000
     0.500000000     0.150000000     0.050000000
     0.500000000     0.150000000     0.150000000
     0.500000000     0.150000000     0.550000000
     0.500000000     0.100000000     0.700000000
     0.500000000     0.150000000     0.750000000
     0.550000000     0.250000000     0.100000000
     0.500000000     0.200000000     0.400000000
     0.500000000     0.250000000     0.550000000
     0.550000000     0.300000000     0.750000000
     0.500000000     0.350000000     0.950000000
     0.550000000     0.450000000     0.100000000
     0.500000000     0.450000000     0.450000000
     0.550000000     0.450000000     0.500000000
     0.550000000     0.450000000     0.800000000
     0.550000000     0.450000000     0.900000000
     0.550000000     0.500000000     0.250000000
     0.500000000     0.600000000     0.000000000
     0.500000000     0.650000000     0.050000000
     0.500000000     0.650000000     0.250000000
     0.550000000     0.600000000     0.250000000
     0.500000000     0.650000000     0.350000000
     0.500000000     0.700000000     0.200000000
     0.550000000     0.700000000     0.350000000
     0.550000000     0.700000000     0.750000000
     0.500000000     0.700000000     0.800000000
     0.550000000     0.850000000     0.000000000
     0.500000000     0.850000000     0.150000000
     0.500000000     0.850000000     0.250000000
     0.550000000     0.900000000     0.350000000
     0.500000000     0.900000000     0.400000000
     0.500000000     0.950000000     0.650000000
     0.550000000     0.900000000     0.650000000
     0.500000000     0.900000000     0.800000000
     0.500000000     0.950000000     0.850000000
     0.550000000     0.900000000     0.850000000
     0.650000000     0.050000000     0.300000000
     0.600000000     0.000000000     0.800000000
     0.650000000     0.000000000     0.950000000
     0.650000000     0.150000000     0.900000000
     0.600000000     0.250000000     0.250000000
     0.600000000     0.200000000     0.900000000
     0.600000000     0.300000000     0.000000000
     0.600000000     0.300000000     0.100000000
     0.650000000     0.350000000     0.100000000
     0.600000000     0.300000000     0.500000000
     0.650000000     0.350000000     0.800000000
     0.600000000     0.400000000     0.100000000
     0.650000000     0.400000000     0.250000000
     0.650000000     0.450000000     0.200000000
     0.650000000     0.400000000     0.350000000
     0.650000000     0.400000000     0.650000000
     0.650000000     0.550000000     0.000000000
     0.600000000     0.500000000     0.100000000
     0.600000000     0.550000000     0.750000000
     0.650000000     0.500000000     0.850000000
     0.600000000     0.600000000     0.000000000
     0.600000000     0.650000000     0.150000000
     0.650000000     0.650000000     0.100000000
     0.600000000     0.600000000     0.500000000
     0.600000000     0.600000000     0.900000000
     0.600000000     0.750000000     0.350000000
     0.650000000     0.700000000     0.350000000
     0.650000000     0.700000000     0.450000000
     0.600000000     0.700000000     0.600000000
     0.650000000     0.750000000     0.600000000
     0.650000000     0.700000000     0.750000000
     0.600000000     0.850000000     0.050000000
     0.650000000     0.850000000     0.000000000
     0.650000000     0.850000000     0.300000000
     0.650000000     0.950000000     0.000000000
     0.600000000     0.950000000     0.150000000
     0.600000000     0.950000000     0.850000000
     0.700000000     0.050000000     0.350000000
     0.700000000     0.050000000     0.750000000
     0.750000000     0.000000000     0.850000000
     0.750000000     0.150000000     0.500000000
     0.700000000     0.100000000     0.600000000
     0.700000000     0.250000000     0.250000000
     0.700000000     0.200000000     0.800000000
     0.750000000     0.250000000     0.900000000
     0.750000000     0.350000000     0.100000000
     0.700000000     0.350000000     0.650000000
     0.700000000     0.450000000     0.150000000
     0.700000000     0.400000000     0.400000000
     0.700000000     0.450000000     0.550000000
     0.750000000     0.400000000     0.650000000
     0.700000000     0.450000000     0.750000000
     0.750000000     0.400000000     0.850000000
     0.700000000     0.500000000     0.000000000
     0.700000000     0.550000000     0.550000000
     0.700000000     0.550000000     0.750000000
     0.750000000     0.550000000     0.900000000
     0.700000000     0.650000000     0.150000000
     0.750000000     0.600000000     0.450000000
     0.700000000     0.600000000     0.600000000
     0.700000000     0.600000000     0.700000000
     0.700000000     0.850000000     0.550000000
     0.750000000     0.800000000     0.650000000
     0.700000000     0.800000000     0.700000000
     0.700000000     0.800000000     0.800000000
     0.700000000     0.850000000     0.950000000
     0.750000000     0.800000000     0.950000000
     0.700000000     0.950000000     0.050000000
     0.750000000     0.900000000     0.150000000
     0.750000000     0.900000000     0.250000000
     0.850000000     0.050000000     0.100000000
     0.800000000     0.050000000     0.450000000
     0.850000000     0.050000000     0.400000000
     0.800000000     0.000000000     0.800000000
     0.850000000     0.150000000     0.600000000
     0.850000000     0.150000000     0.800000000
     0.850000000     0.100000000     0.950000000
     0.850000000     0.200000000     0.750000000
     0.800000000     0.300000000     0.000000000
     0.800000000     0.350000000     0.650000000
     0.850000000     0.300000000     0.850000000
     0.800000000     0.450000000     0.250000000
     0.850000000     0.400000000     0.350000000
     0.850000000     0.400000000     0.450000000
     0.800000000     0.450000000     0.750000000
     0.850000000     0.550000000     0.200000000
     0.800000000     0.650000000     0.050000000
     0.800000000     0.650000000     0.250000000
     0.850000000     0.700000000     0.750000000
     0.800000000     0.750000000     0.950000000
     0.800000000     0.800000000     0.400000000
     0.850000000     0.800000000     0.950000000
     0.850000000     0.900000000     0.250000000
     0.850000000     0.900000000     0.350000000
     0.800000000     0.950000000     0.550000000
     0.850000000     0.900000000     0.550000000
     0.850000000     0.950000000     0.500000000
     0.950000000     0.050000000     0.200000000
     0.900000000     0.000000000     0.400000000
     0.900000000     0.050000000     0.850000000
     0.950000000     0.150000000     0.500000000
     0.950000000     0.100000000     0.650000000
     0.950000000     0.100000000     0.750000000
     0.900000000     0.200000000     0.000000000
     0.900000000     0.250000000     0.050000000
     0.950000000     0.250000000     0.100000000
     0.900000000     0.250000000     0.650000000
     0.950000000     0.250000000     0.900000000
     0.900000000     0.300000000     0.100000000
     0.900000000     0.300000000     0.200000000
     0.900000000     0.350000000     0.250000000
     0.900000000     0.300000000     0.500000000
     0.950000000     0.350000000     0.500000000
     0.900000000     0.300000000     0.900000000
     0.950000000     0.300000000     0.950000000
     0.950000000     0.400000000     0.250000000
     0.950000000     0.400000000     0.350000000
     0.900000000     0.450000000     0.650000000
     0.950000000     0.450000000     0.600000000
     0.950000000     0.450000000     0.900000000
     0.900000000     0.500000000     0.100000000
     0.950000000     0.550000000     0.100000000
     0.900000000     0.550000000     0.650000000
     0.900000000     0.650000000     0.050000000
     0.950000000     0.600000000     0.150000000
     0.900000000     0.750000000     0.150000000
     0.950000000     0.750000000     0.100000000
     0.950000000     0.700000000     0.250000000
     0.900000000     0.700000000     0.700000000
     0.900000000     0.750000000     0.750000000
     0.950000000     0.800000000     0.250000000
     0.950000000     0.800000000     0.350000000
     0.900000000     0.850000000     0.450000000
     0.950000000     0.800000000     0.550000000
     0.950000000     0.950000000     0.200000000
     0.950000000     0.950000000     0.500000000
     0.950000000     0.900000000     0.650000000
     0.950000000     0.950000000     0.800000000
     0.000000000     0.100000000     0.100000000
     0.000000000     0.150000000     0.150000000
     0.050000000     0.100000000     0.850000000
     0.000000000     0.200000000     0.300000000
     0.000000000     0.200000000     0.900000000
     0.050000000     0.350000000     0.000000000
     0.050000000     0.300000000     0.550000000
     0.000000000     0.400000000     0.000000000
     0.050000000     0.450000000     0.200000000
     0.050000000     0.400000000     0.850000000
     0.000000000     0.500000000     0.100000000
     0.050000000     0.550000000     0.800000000
     0.000000000     0.500000000     0.900000000
     0.050000000     0.650000000     0.400000000
     0.000000000     0.650000000     0.850000000
     0.050000000     0.600000000     0.950000000
     0.050000000     0.900000000     0.250000000
     0.000000000     0.950000000     0.350000000
     0.000000000     0.950000000     0.850000000
     0.100000000     0.050000000     0.150000000
     0.100000000     0.000000000     0.500000000
     0.100000000     0.050000000     0.750000000
     0.100000000     0.100000000     0.600000000
     0.100000000     0.200000000     0.400000000
     0.150000000     0.450000000     0.800000000
     0.100000000     0.500000000     0.300000000
     0.150000000     0.500000000     0.750000000
     0.100000000     0.500000000     0.800000000
     0.150000000     0.650000000     0.000000000
     0.100000000     0.650000000     0.250000000
     0.100000000     0.650000000     0.550000000
     0.150000000     0.800000000     0.150000000
     0.100000000     0.800000000     0.500000000
     0.200000000     0.000000000     0.200000000
     0.250000000     0.050000000     0.400000000
     0.200000000     0.050000000     0.750000000
     0.250000000     0.100000000     0.650000000
     0.200000000     0.200000000     0.700000000
     0.250000000     0.200000000     0.850000000
     0.250000000     0.350000000     0.400000000
     0.250000000     0.350000000     0.700000000
     0.200000000     0.350000000     0.950000000
     0.200000000     0.450000000     0.450000000
     0.250000000     0.400000000     0.450000000
     0.200000000     0.700000000     0.400000000
     0.200000000     0.800000000     0.000000000
     0.200000000     0.900000000     0.500000000
     0.300000000     0.050000000     0.950000000
     0.300000000     0.150000000     0.650000000
     0.350000000     0.200000000     0.350000000
     0.350000000     0.250000000     0.300000000
     0.300000000     0.300000000     0.800000000
     0.300000000     0.400000000     0.000000000
     0.350000000     0.450000000     0.800000000
     0.300000000     0.550000000     0.850000000
     0.300000000     0.600000000     0.000000000
     0.350000000     0.600000000     0.950000000
     0.300000000     0.700000000     0.100000000
     0.350000000     0.750000000     0.400000000
     0.300000000     0.750000000     0.750000000
     0.300000000     0.800000000     0.200000000
     0.300000000     0.800000000     0.600000000
     0.300000000     0.850000000     0.650000000
     0.300000000     0.950000000     0.850000000
     0.400000000     0.050000000     0.050000000
     0.450000000     0.100000000     0.150000000
     0.450000000     0.200000000     0.250000000
     0.450000000     0.250000000     0.200000000
     0.400000000     0.250000000     0.650000000
     0.450000000     0.350000000     0.100000000
     0.450000000     0.300000000     0.650000000
     0.400000000     0.650000000     0.450000000
     0.450000000     0.600000000     0.450000000
     0.450000000     0.700000000     0.850000000
     0.400000000     0.950000000     0.850000000
     0.550000000     0.000000000     0.550000000
     0.500000000     0.050000000     0.650000000
     0.550000000     0.000000000     0.950000000
     0.500000000     0.200000000     0.300000000
     0.550000000     0.250000000     0.800000000
     0.500000000     0.300000000     0.800000000
     0.550000000     0.550000000     0.100000000
     0.500000000     0.600000000     0.700000000
     0.500000000     0.700000000     0.000000000
     0.550000000     0.700000000     0.450000000
     0.500000000     0.750000000     0.750000000
     0.500000000     0.750000000     0.850000000
     0.500000000     0.850000000     0.750000000
     0.650000000     0.150000000     0.700000000
     0.600000000     0.250000000     0.150000000
     0.650000000     0.200000000     0.750000000
     0.600000000     0.300000000     0.300000000
     0.650000000     0.400000000     0.950000000
     0.600000000     0.550000000     0.150000000
     0.600000000     0.500000000     0.200000000
     0.600000000     0.500000000     0.800000000
     0.600000000     0.500000000     0.900000000
     0.650000000     0.600000000     0.450000000
     0.600000000     0.600000000     0.800000000
     0.650000000     0.800000000     0.050000000
     0.700000000     0.150000000     0.150000000
     0.700000000     0.200000000     0.100000000
     0.700000000     0.250000000     0.350000000
     0.750000000     0.200000000     0.550000000
     0.750000000     0.350000000     0.600000000
     0.750000000     0.450000000     0.500000000
     0.750000000     0.550000000     0.400000000
     0.700000000     0.500000000     0.500000000
     0.700000000     0.650000000     0.750000000
     0.700000000     0.700000000     0.300000000
     0.700000000     0.850000000     0.050000000
     0.700000000     0.800000000     0.200000000
     0.700000000     0.800000000     0.400000000
     0.700000000     0.800000000     0.600000000
     0.750000000     0.850000000     0.800000000
     0.750000000     0.950000000     0.000000000
     0.700000000     0.950000000     0.650000000
     0.700000000     0.900000000     0.800000000
     0.800000000     0.050000000     0.150000000
     0.800000000     0.150000000     0.750000000
     0.850000000     0.150000000     0.700000000
     0.850000000     0.250000000     0.200000000
     0.850000000     0.250000000     0.700000000
     0.800000000     0.350000000     0.150000000
     0.800000000     0.300000000     0.900000000
     0.850000000     0.550000000     0.400000000
     0.850000000     0.550000000     0.600000000
     0.850000000     0.600000000     0.250000000
     0.850000000     0.750000000     0.900000000
     0.800000000     0.950000000     0.750000000
     0.950000000     0.000000000     0.150000000
     0.950000000     0.000000000     0.350000000
     0.950000000     0.050000000     0.400000000
     0.900000000     0.150000000     0.250000000
     0.900000000     0.100000000     0.800000000
     0.900000000     0.200000000     0.600000000
     0.900000000     0.350000000     0.750000000
     0.950000000     0.450000000     0.100000000
     0.900000000     0.400000000     0.700000000
     0.950000000     0.550000000     0.400000000
     0.900000000     0.650000000     0.150000000
     0.950000000     0.650000000     0.600000000
     0.900000000     0.750000000     0.950000000
     0.950000000     0.950000000     0.900000000
     0.000000000     0.000000000     0.100000000
     0.050000000     0.050000000     0.300000000
     0.050000000     0.000000000     0.650000000
     0.050000000     0.000000000     0.850000000
     0.050000000     0.050000000     0.900000000
     0.000000000     0.150000000     0.350000000
     0.000000000     0.100000000     0.700000000
     0.000000000     0.150000000     0.750000000
     0.050000000     0.150000000     0.700000000
     0.000000000     0.100000000     0.900000000
     0.000000000     0.250000000     0.050000000
     0.050000000     0.200000000     0.650000000
     0.050000000     0.250000000     0.900000000
     0.050000000     0.300000000     0.350000000
     0.000000000     0.300000000     0.900000000
     0.000000000     0.400000000     0.100000000
     0.000000000     0.400000000     0.200000000
     0.050000000     0.550000000     0.000000000
     0.050000000     0.500000000     0.250000000
     0.000000000     0.550000000     0.550000000
     0.000000000     0.600000000     0.100000000
     0.000000000     0.600000000     0.200000000
     0.000000000     0.600000000     0.400000000
     0.000000000     0.650000000     0.450000000
     0.000000000     0.650000000     0.750000000
     0.000000000     0.750000000     0.450000000
     0.000000000     0.750000000     0.750000000
     0.000000000     0.850000000     0.050000000
     0.000000000     0.800000000     0.200000000
     0.000000000     0.850000000     0.250000000
     0.050000000     0.850000000     0.300000000
     0.000000000     0.800000000     0.800000000
     0.000000000     0.900000000     0.000000000
     0.050000000     0.900000000     0.150000000
     0.050000000     0.900000000     0.350000000
     0.050000000     0.950000000     0.300000000
     0.050000000     0.900000000     0.450000000
     0.050000000     0.900000000     0.550000000
     0.050000000     0.950000000     0.600000000
     0.000000000     0.900000000     0.700000000
     0.050000000     0.900000000     0.850000000
     0.150000000     0.000000000     0.250000000
     0.100000000     0.000000000     0.300000000
     0.100000000     0.050000000     0.850000000
     0.150000000     0.050000000     0.800000000
     0.150000000     0.050000000     0.900000000
     0.100000000     0.150000000     0.150000000
     0.150000000     0.150000000     0.200000000
     0.100000000     0.150000000     0.550000000
     0.100000000     0.100000000     0.900000000
     0.150000000     0.200000000     0.550000000
     0.100000000     0.200000000     0.600000000
     0.150000000     0.250000000     0.600000000
     0.100000000     0.250000000     0.850000000
     0.150000000     0.250000000     0.800000000
     0.150000000     0.350000000     0.000000000
     0.150000000     0.300000000     0.150000000
     0.150000000     0.400000000     0.050000000
     0.150000000     0.450000000     0.000000000
     0.100000000     0.400000000     0.300000000
     0.100000000     0.400000000     0.500000000
     0.100000000     0.400000000     0.600000000
     0.100000000     0.450000000     0.650000000
     0.150000000     0.450000000     0.600000000
     0.100000000     0.400000000     0.800000000
     0.100000000     0.500000000     0.000000000
     0.100000000     0.550000000     0.050000000
     0.150000000     0.550000000     0.200000000
     0.150000000     0.550000000     0.900000000
     0.100000000     0.600000000     0.300000000
     0.100000000     0.650000000     0.650000000
     0.100000000     0.650000000     0.850000000
     0.150000000     0.600000000     0.850000000
     0.100000000     0.600000000     0.900000000
     0.100000000     0.750000000     0.150000000
     0.150000000     0.700000000     0.250000000
     0.150000000     0.750000000     0.500000000
     0.100000000     0.750000000     0.650000000
     0.150000000     0.750000000     0.700000000
     0.100000000     0.700000000     0.800000000
     0.150000000     0.850000000     0.300000000
     0.100000000     0.850000000     0.550000000
     0.150000000     0.800000000     0.550000000
     0.100000000     0.800000000     0.700000000
     0.100000000     0.800000000     0.900000000
     0.150000000     0.850000000     0.900000000
     0.100000000     0.950000000     0.050000000
     0.150000000     0.950000000     0.000000000
     0.100000000     0.900000000     0.200000000
     0.150000000     0.950000000     0.600000000
     0.150000000     0.950000000     0.700000000
     0.200000000     0.000000000     0.300000000
     0.250000000     0.050000000     0.300000000
     0.250000000     0.000000000     0.550000000
     0.250000000     0.000000000     0.750000000
     0.200000000     0.100000000     0.000000000
     0.200000000     0.100000000     0.200000000
     0.200000000     0.150000000     0.450000000
     0.250000000     0.150000000     0.600000000
     0.200000000     0.250000000     0.550000000
     0.200000000     0.250000000     0.950000000
     0.250000000     0.300000000     0.050000000
     0.250000000     0.350000000     0.100000000
     0.250000000     0.300000000     0.250000000
     0.200000000     0.300000000     0.300000000
     0.250000000     0.300000000     0.450000000
     0.200000000     0.300000000     0.700000000
     0.250000000     0.450000000     0.300000000
     0.200000000     0.450000000     0.550000000
     0.250000000     0.500000000     0.150000000
     0.200000000     0.550000000     0.350000000
     0.200000000     0.550000000     0.450000000
     0.250000000     0.500000000     0.450000000
     0.200000000     0.500000000     0.600000000
     0.250000000     0.500000000     0.750000000
     0.200000000     0.600000000     0.300000000
     0.200000000     0.650000000     0.350000000
     0.250000000     0.600000000     0.750000000
     0.200000000     0.700000000     0.200000000
     0.200000000     0.700000000     0.800000000
     0.250000000     0.800000000     0.250000000
     0.200000000     0.850000000     0.350000000
     0.250000000     0.800000000     0.350000000
     0.250000000     0.850000000     0.300000000
     0.250000000     0.800000000     0.450000000
     0.200000000     0.800000000     0.500000000
     0.200000000     0.850000000     0.750000000
     0.200000000     0.800000000     0.800000000
     0.200000000     0.800000000     0.900000000
     0.200000000     0.900000000     0.600000000
     0.250000000     0.950000000     0.600000000
     0.250000000     0.950000000     0.800000000
     0.350000000     0.050000000     0.000000000
     0.350000000     0.050000000     0.200000000
     0.300000000     0.050000000     0.550000000
     0.300000000     0.000000000     0.800000000
     0.300000000     0.000000000     0.900000000
     0.350000000     0.100000000     0.450000000
     0.300000000     0.100000000     0.800000000
     0.350000000     0.250000000     0.100000000
     0.350000000     0.200000000     0.250000000
     0.300000000     0.200000000     0.600000000
     0.350000000     0.250000000     0.600000000
     0.350000000     0.250000000     0.700000000
     0.300000000     0.200000000     0.800000000
     0.300000000     0.300000000     0.100000000
     0.300000000     0.350000000     0.450000000
     0.350000000     0.300000000     0.550000000
     0.350000000     0.350000000     0.900000000
     0.350000000     0.400000000     0.050000000
     0.350000000     0.400000000     0.250000000
     0.300000000     0.400000000     0.300000000
     0.350000000     0.450000000     0.300000000
     0.350000000     0.400000000     0.450000000
     0.300000000     0.450000000     0.550000000
     0.300000000     0.400000000     0.600000000
     0.300000000     0.500000000     0.100000000
     0.300000000     0.500000000     0.300000000
     0.300000000     0.550000000     0.650000000
     0.350000000     0.550000000     0.800000000
     0.350000000     0.500000000     0.950000000
     0.300000000     0.600000000     0.100000000
     0.300000000     0.650000000     0.150000000
     0.300000000     0.650000000     0.350000000
     0.300000000     0.650000000     0.450000000
     0.300000000     0.650000000     0.750000000
     0.300000000     0.700000000     0.300000000
     0.300000000     0.750000000     0.450000000
     0.300000000     0.700000000     0.500000000
     0.300000000     0.750000000     0.650000000
     0.350000000     0.800000000     0.050000000
     0.300000000     0.800000000     0.100000000
     0.300000000     0.850000000     0.250000000
     0.350000000     0.850000000     0.400000000
     0.300000000     0.800000000     0.800000000
     0.300000000     0.900000000     0.200000000
     0.300000000     0.950000000     0.550000000
     0.300000000     0.900000000     0.800000000
     0.450000000     0.050000000     0.100000000
     0.450000000     0.050000000     0.200000000
     0.400000000     0.050000000     0.850000000
     0.400000000     0.000000000     0.900000000
     0.450000000     0.000000000     0.950000000
     0.400000000     0.100000000     0.200000000
     0.400000000     0.100000000     0.300000000
     0.450000000     0.150000000     0.300000000
     0.400000000     0.100000000     0.400000000
     0.450000000     0.150000000     0.500000000
     0.450000000     0.150000000     0.900000000
     0.450000000     0.250000000     0.400000000
     0.400000000     0.250000000     0.850000000
     0.400000000     0.300000000     0.100000000
     0.400000000     0.300000000     0.300000000
     0.450000000     0.300000000     0.550000000
     0.450000000     0.450000000     0.100000000
     0.450000000     0.450000000     0.300000000
     0.400000000     0.450000000     0.550000000
     0.450000000     0.450000000     0.600000000
     0.400000000     0.550000000     0.150000000
     0.450000000     0.500000000     0.450000000
     0.400000000     0.500000000     0.800000000
     0.450000000     0.650000000     0.200000000
     0.400000000     0.600000000     0.300000000
     0.450000000     0.650000000     0.500000000
     0.400000000     0.650000000     0.650000000
     0.400000000     0.700000000     0.200000000
     0.450000000     0.700000000     0.450000000
     0.400000000     0.700000000     0.500000000
     0.450000000     0.750000000     0.700000000
     0.450000000     0.750000000     0.900000000
     0.400000000     0.800000000     0.200000000
     0.450000000     0.850000000     0.200000000
     0.400000000     0.800000000     0.400000000
     0.400000000     0.850000000     0.450000000
     0.400000000     0.800000000     0.900000000
     0.400000000     0.850000000     0.950000000
     0.400000000     0.900000000     0.200000000
     0.450000000     0.950000000     0.900000000
     0.500000000     0.000000000     0.800000000
     0.500000000     0.100000000     0.000000000
     0.550000000     0.100000000     0.150000000
     0.550000000     0.200000000     0.250000000
     0.500000000     0.250000000     0.450000000
     0.550000000     0.250000000     0.400000000
     0.500000000     0.300000000     0.000000000
     0.550000000     0.300000000     0.150000000
     0.550000000     0.350000000     0.400000000
     0.500000000     0.350000000     0.850000000
     0.550000000     0.400000000     0.050000000
     0.550000000     0.450000000     0.000000000
     0.550000000     0.400000000     0.150000000
     0.500000000     0.450000000     0.650000000
     0.500000000     0.400000000     0.700000000
     0.500000000     0.450000000     0.750000000
     0.500000000     0.400000000     0.900000000
     0.550000000     0.400000000     0.950000000
     0.500000000     0.500000000     0.100000000
     0.550000000     0.550000000     0.300000000
     0.550000000     0.600000000     0.050000000
     0.500000000     0.600000000     0.100000000
     0.550000000     0.650000000     0.200000000
     0.550000000     0.650000000     0.300000000
     0.500000000     0.600000000     0.400000000
     0.550000000     0.600000000     0.950000000
     0.500000000     0.700000000     0.100000000
     0.550000000     0.750000000     0.100000000
     0.500000000     0.700000000     0.300000000
     0.500000000     0.700000000     0.500000000
     0.550000000     0.750000000     0.600000000
     0.550000000     0.750000000     0.700000000
     0.550000000     0.850000000     0.600000000
     0.550000000     0.950000000     0.800000000
     0.550000000     0.950000000     0.900000000
     0.600000000     0.050000000     0.350000000
     0.600000000     0.000000000     0.400000000
     0.650000000     0.000000000     0.550000000
     0.600000000     0.000000000     0.600000000
     0.600000000     0.050000000     0.650000000
     0.600000000     0.050000000     0.750000000
     0.650000000     0.000000000     0.850000000
     0.650000000     0.150000000     0.000000000
     0.650000000     0.100000000     0.150000000
     0.600000000     0.100000000     0.500000000
     0.600000000     0.150000000     0.550000000
     0.600000000     0.100000000     0.600000000
     0.650000000     0.200000000     0.250000000
     0.650000000     0.250000000     0.300000000
     0.650000000     0.350000000     0.300000000
     0.600000000     0.350000000     0.550000000
     0.650000000     0.350000000     0.700000000
     0.650000000     0.300000000     0.850000000
     0.600000000     0.450000000     0.150000000
     0.600000000     0.450000000     0.750000000
     0.600000000     0.400000000     0.800000000
     0.600000000     0.500000000     0.000000000
     0.600000000     0.550000000     0.250000000
     0.650000000     0.550000000     0.300000000
     0.650000000     0.500000000     0.550000000
     0.600000000     0.650000000     0.250000000
     0.600000000     0.600000000     0.300000000
     0.600000000     0.600000000     0.400000000
     0.650000000     0.600000000     0.650000000
     0.600000000     0.750000000     0.450000000
     0.600000000     0.700000000     0.500000000
     0.650000000     0.900000000     0.050000000
     0.650000000     0.900000000     0.150000000
     0.600000000     0.950000000     0.650000000
     0.650000000     0.900000000     0.650000000
     0.650000000     0.950000000     0.700000000
     0.650000000     0.900000000     0.950000000
     0.750000000     0.000000000     0.050000000
     0.750000000     0.000000000     0.150000000
     0.750000000     0.000000000     0.350000000
     0.700000000     0.100000000     0.200000000
     0.700000000     0.150000000     0.450000000
     0.700000000     0.150000000     0.550000000
     0.700000000     0.100000000     0.800000000
     0.750000000     0.100000000     0.850000000
     0.750000000     0.200000000     0.350000000
     0.750000000     0.200000000     0.850000000
     0.700000000     0.200000000     0.900000000
     0.700000000     0.300000000     0.000000000
     0.750000000     0.350000000     0.200000000
     0.750000000     0.350000000     0.300000000
     0.750000000     0.300000000     0.650000000
     0.700000000     0.300000000     0.700000000
     0.700000000     0.350000000     0.950000000
     0.750000000     0.300000000     0.950000000
     0.750000000     0.450000000     0.700000000
     0.750000000     0.450000000     0.800000000
     0.700000000     0.400000000     0.900000000
     0.700000000     0.550000000     0.150000000
     0.750000000     0.500000000     0.250000000
     0.750000000     0.500000000     0.550000000
     0.750000000     0.550000000     0.500000000
     0.700000000     0.550000000     0.650000000
     0.700000000     0.550000000     0.850000000
     0.750000000     0.550000000     0.800000000
     0.750000000     0.600000000     0.050000000
     0.750000000     0.650000000     0.400000000
     0.750000000     0.600000000     0.650000000
     0.700000000     0.650000000     0.850000000
     0.700000000     0.700000000     0.200000000
     0.700000000     0.700000000     0.600000000
     0.750000000     0.700000000     0.850000000
     0.750000000     0.850000000     0.000000000
     0.750000000     0.850000000     0.100000000
     0.750000000     0.800000000     0.350000000
     0.700000000     0.800000000     0.500000000
     0.700000000     0.850000000     0.850000000
     0.700000000     0.950000000     0.450000000
     0.750000000     0.900000000     0.450000000
     0.750000000     0.950000000     0.400000000
     0.700000000     0.900000000     0.600000000
     0.700000000     0.900000000     0.700000000
     0.850000000     0.150000000     0.000000000
     0.850000000     0.150000000     0.100000000
     0.800000000     0.100000000     0.400000000
     0.850000000     0.150000000     0.400000000
     0.800000000     0.100000000     0.800000000
     0.850000000     0.150000000     0.900000000
     0.800000000     0.200000000     0.000000000
     0.800000000     0.250000000     0.150000000
     0.850000000     0.250000000     0.400000000
     0.850000000     0.200000000     0.650000000
     0.850000000     0.350000000     0.100000000
     0.800000000     0.300000000     0.700000000
     0.850000000     0.450000000     0.800000000
     0.850000000     0.450000000     0.900000000
     0.800000000     0.500000000     0.200000000
     0.800000000     0.550000000     0.850000000
     0.800000000     0.600000000     0.300000000
     0.850000000     0.600000000     0.450000000
     0.800000000     0.650000000     0.750000000
     0.800000000     0.650000000     0.850000000
     0.850000000     0.600000000     0.850000000
     0.800000000     0.600000000     0.900000000
     0.850000000     0.600000000     0.950000000
     0.850000000     0.700000000     0.350000000
     0.800000000     0.850000000     0.050000000
     0.800000000     0.800000000     0.200000000
     0.850000000     0.800000000     0.450000000
     0.850000000     0.800000000     0.650000000
     0.850000000     0.800000000     0.750000000
     0.850000000     0.850000000     0.700000000
     0.800000000     0.850000000     0.850000000
     0.800000000     0.900000000     0.500000000
     0.850000000     0.900000000     0.650000000
     0.900000000     0.000000000     0.100000000
     0.900000000     0.000000000     0.300000000
     0.900000000     0.050000000     0.750000000
     0.950000000     0.150000000     0.100000000
     0.950000000     0.100000000     0.450000000
     0.950000000     0.100000000     0.550000000
     0.950000000     0.150000000     0.800000000
     0.900000000     0.200000000     0.100000000
     0.950000000     0.200000000     0.750000000
     0.950000000     0.250000000     0.700000000
     0.950000000     0.200000000     0.850000000
     0.950000000     0.250000000     0.800000000
     0.900000000     0.350000000     0.350000000
     0.950000000     0.300000000     0.350000000
     0.900000000     0.450000000     0.450000000
     0.900000000     0.450000000     0.950000000
     0.900000000     0.500000000     0.200000000
     0.900000000     0.500000000     0.800000000
     0.900000000     0.600000000     0.100000000
     0.950000000     0.600000000     0.350000000
     0.900000000     0.600000000     0.500000000
     0.900000000     0.650000000     0.850000000
     0.950000000     0.650000000     0.800000000
     0.950000000     0.600000000     0.950000000
     0.900000000     0.700000000     0.200000000
     0.950000000     0.750000000     0.200000000
     0.900000000     0.700000000     0.300000000
     0.900000000     0.750000000     0.650000000
     0.900000000     0.850000000     0.350000000
     0.950000000     0.850000000     0.500000000
     0.950000000     0.900000000     0.150000000
     0.950000000     0.950000000     0.600000000
     0.000000000     0.050000000     0.050000000
     0.050000000     0.000000000     0.050000000
     0.050000000     0.050000000     0.000000000
     0.000000000     0.050000000     0.150000000
     0.050000000     0.050000000     0.100000000
     0.000000000     0.000000000     0.200000000
     0.000000000     0.050000000     0.250000000
     0.050000000     0.000000000     0.250000000
     0.050000000     0.050000000     0.200000000
     0.000000000     0.000000000     0.300000000
     0.000000000     0.050000000     0.350000000
     0.050000000     0.000000000     0.350000000
     0.000000000     0.000000000     0.400000000
     0.000000000     0.050000000     0.450000000
     0.050000000     0.000000000     0.450000000
     0.050000000     0.050000000     0.400000000
     0.000000000     0.000000000     0.500000000
     0.000000000     0.050000000     0.550000000
     0.050000000     0.000000000     0.550000000
     0.000000000     0.000000000     0.600000000
     0.000000000     0.050000000     0.650000000
     0.050000000     0.050000000     0.600000000
     0.000000000     0.050000000     0.750000000
     0.050000000     0.050000000     0.700000000
     0.000000000     0.000000000     0.800000000
     0.000000000     0.000000000     0.900000000
     0.000000000     0.050000000     0.950000000
     0.050000000     0.000000000     0.950000000
     0.000000000     0.150000000     0.050000000
     0.050000000     0.100000000     0.050000000
     0.050000000     0.150000000     0.000000000
     0.050000000     0.100000000     0.150000000
     0.050000000     0.150000000     0.100000000
     0.000000000     0.100000000     0.200000000
     0.050000000     0.150000000     0.200000000
     0.050000000     0.100000000     0.350000000
     0.050000000     0.150000000     0.300000000
     0.000000000     0.100000000     0.400000000
     0.050000000     0.100000000     0.450000000
     0.050000000     0.150000000     0.400000000
     0.000000000     0.100000000     0.500000000
     0.050000000     0.150000000     0.500000000
     0.000000000     0.100000000     0.600000000
     0.050000000     0.150000000     0.600000000
     0.050000000     0.100000000     0.750000000
     0.000000000     0.100000000     0.800000000
     0.000000000     0.150000000     0.850000000
     0.050000000     0.150000000     0.800000000
     0.000000000     0.150000000     0.950000000
     0.050000000     0.100000000     0.950000000
     0.050000000     0.150000000     0.900000000
     0.000000000     0.200000000     0.000000000
     0.050000000     0.200000000     0.050000000
     0.050000000     0.250000000     0.000000000
     0.000000000     0.250000000     0.150000000
     0.050000000     0.200000000     0.150000000
     0.050000000     0.250000000     0.100000000
     0.000000000     0.200000000     0.200000000
     0.000000000     0.250000000     0.250000000
     0.050000000     0.250000000     0.200000000
     0.000000000     0.250000000     0.350000000
     0.050000000     0.200000000     0.350000000
     0.050000000     0.250000000     0.300000000
     0.000000000     0.200000000     0.400000000
     0.000000000     0.250000000     0.450000000
     0.050000000     0.200000000     0.450000000
     0.050000000     0.250000000     0.400000000
     0.000000000     0.200000000     0.500000000
     0.000000000     0.250000000     0.550000000
     0.050000000     0.250000000     0.500000000
     0.000000000     0.200000000     0.600000000
     0.000000000     0.250000000     0.650000000
     0.050000000     0.250000000     0.600000000
     0.000000000     0.200000000     0.700000000
     0.000000000     0.250000000     0.750000000
     0.050000000     0.200000000     0.750000000
     0.050000000     0.250000000     0.700000000
     0.000000000     0.200000000     0.800000000
     0.000000000     0.250000000     0.850000000
     0.050000000     0.200000000     0.850000000
     0.050000000     0.250000000     0.800000000
     0.000000000     0.250000000     0.950000000
     0.050000000     0.200000000     0.950000000
     0.000000000     0.300000000     0.000000000
     0.050000000     0.300000000     0.050000000
     0.000000000     0.300000000     0.100000000
     0.000000000     0.350000000     0.150000000
     0.050000000     0.300000000     0.150000000
     0.050000000     0.350000000     0.100000000
     0.000000000     0.300000000     0.200000000
     0.000000000     0.350000000     0.250000000
     0.050000000     0.300000000     0.250000000
     0.050000000     0.350000000     0.200000000
     0.000000000     0.300000000     0.300000000
     0.000000000     0.350000000     0.350000000
     0.050000000     0.350000000     0.300000000
     0.050000000     0.300000000     0.450000000
     0.050000000     0.350000000     0.400000000
     0.000000000     0.300000000     0.500000000
     0.000000000     0.350000000     0.550000000
     0.050000000     0.350000000     0.500000000
     0.000000000     0.300000000     0.600000000
     0.000000000     0.350000000     0.650000000
     0.050000000     0.300000000     0.650000000
     0.050000000     0.350000000     0.600000000
     0.000000000     0.300000000     0.700000000
     0.000000000     0.350000000     0.750000000
     0.050000000     0.300000000     0.750000000
     0.050000000     0.350000000     0.700000000
     0.000000000     0.300000000     0.800000000
     0.000000000     0.350000000     0.850000000
     0.050000000     0.300000000     0.850000000
     0.050000000     0.350000000     0.800000000
     0.000000000     0.350000000     0.950000000
     0.050000000     0.300000000     0.950000000
     0.050000000     0.350000000     0.900000000
     0.000000000     0.450000000     0.050000000
     0.050000000     0.400000000     0.050000000
     0.050000000     0.450000000     0.000000000
     0.000000000     0.450000000     0.150000000
     0.050000000     0.400000000     0.150000000
     0.050000000     0.450000000     0.100000000
     0.000000000     0.450000000     0.250000000
     0.050000000     0.400000000     0.250000000
     0.000000000     0.400000000     0.300000000
     0.050000000     0.400000000     0.350000000
     0.050000000     0.450000000     0.300000000
     0.000000000     0.400000000     0.400000000
     0.000000000     0.450000000     0.450000000
     0.050000000     0.400000000     0.450000000
     0.000000000     0.400000000     0.500000000
     0.050000000     0.400000000     0.550000000
     0.000000000     0.450000000     0.650000000
     0.050000000     0.450000000     0.600000000
     0.000000000     0.400000000     0.700000000
     0.000000000     0.450000000     0.750000000
     0.050000000     0.400000000     0.750000000
     0.050000000     0.450000000     0.700000000
     0.000000000     0.400000000     0.800000000
     0.000000000     0.450000000     0.850000000
     0.050000000     0.450000000     0.800000000
     0.000000000     0.400000000     0.900000000
     0.050000000     0.400000000     0.950000000
     0.000000000     0.500000000     0.000000000
     0.000000000     0.550000000     0.050000000
     0.050000000     0.500000000     0.050000000
     0.000000000     0.550000000     0.150000000
     0.050000000     0.500000000     0.150000000
     0.050000000     0.550000000     0.100000000
     0.000000000     0.500000000     0.200000000
     0.000000000     0.550000000     0.250000000
     0.050000000     0.550000000     0.200000000
     0.000000000     0.500000000     0.300000000
     0.000000000     0.550000000     0.350000000
     0.050000000     0.500000000     0.350000000
     0.050000000     0.550000000     0.300000000
     0.000000000     0.500000000     0.400000000
     0.050000000     0.500000000     0.450000000
     0.050000000     0.550000000     0.400000000
     0.000000000     0.500000000     0.500000000
     0.050000000     0.550000000     0.500000000
     0.000000000     0.550000000     0.650000000
     0.050000000     0.500000000     0.650000000
     0.050000000     0.550000000     0.600000000
     0.000000000     0.500000000     0.700000000
     0.000000000     0.550000000     0.750000000
     0.050000000     0.500000000     0.750000000
     0.050000000     0.550000000     0.700000000
     0.000000000     0.500000000     0.800000000
     0.000000000     0.550000000     0.850000000
     0.050000000     0.500000000     0.850000000
     0.000000000     0.550000000     0.950000000
     0.050000000     0.500000000     0.950000000
     0.050000000     0.550000000     0.900000000
     0.000000000     0.600000000     0.000000000
     0.000000000     0.650000000     0.050000000
     0.050000000     0.600000000     0.050000000
     0.050000000     0.650000000     0.000000000
     0.000000000     0.650000000     0.150000000
     0.050000000     0.600000000     0.150000000
     0.050000000     0.650000000     0.100000000
     0.000000000     0.650000000     0.250000000
     0.050000000     0.600000000     0.250000000
     0.050000000     0.650000000     0.200000000
     0.000000000     0.600000000     0.300000000
     0.000000000     0.650000000     0.350000000
     0.050000000     0.600000000     0.350000000
     0.050000000     0.650000000     0.300000000
     0.050000000     0.600000000     0.450000000
     0.000000000     0.600000000     0.500000000
     0.000000000     0.650000000     0.550000000
     0.050000000     0.600000000     0.550000000
     0.050000000     0.650000000     0.500000000
     0.000000000     0.600000000     0.600000000
     0.000000000     0.650000000     0.650000000
     0.050000000     0.600000000     0.650000000
     0.050000000     0.650000000     0.600000000
     0.050000000     0.600000000     0.750000000
     0.050000000     0.650000000     0.700000000
     0.000000000     0.600000000     0.800000000
     0.050000000     0.600000000     0.850000000
     0.050000000     0.650000000     0.800000000
     0.000000000     0.600000000     0.900000000
     0.000000000     0.650000000     0.950000000
     0.050000000     0.650000000     0.900000000
     0.000000000     0.700000000     0.000000000
     0.000000000     0.750000000     0.050000000
     0.050000000     0.700000000     0.050000000
     0.050000000     0.750000000     0.000000000
     0.000000000     0.700000000     0.100000000
     0.000000000     0.750000000     0.150000000
     0.050000000     0.700000000     0.150000000
     0.050000000     0.750000000     0.100000000
     0.000000000     0.700000000     0.200000000
     0.000000000     0.750000000     0.250000000
     0.050000000     0.750000000     0.200000000
     0.000000000     0.700000000     0.300000000
     0.000000000     0.750000000     0.350000000
     0.050000000     0.700000000     0.350000000
     0.000000000     0.700000000     0.400000000
     0.050000000     0.750000000     0.400000000
     0.000000000     0.750000000     0.550000000
     0.050000000     0.700000000     0.550000000
     0.050000000     0.750000000     0.500000000
     0.000000000     0.700000000     0.600000000
     0.050000000     0.700000000     0.650000000
     0.050000000     0.750000000     0.600000000
     0.000000000     0.700000000     0.700000000
     0.050000000     0.700000000     0.750000000
     0.050000000     0.750000000     0.700000000
     0.050000000     0.700000000     0.850000000
     0.050000000     0.750000000     0.800000000
     0.050000000     0.700000000     0.950000000
     0.050000000     0.750000000     0.900000000
     0.000000000     0.800000000     0.000000000
     0.050000000     0.800000000     0.050000000
     0.050000000     0.850000000     0.000000000
     0.000000000     0.800000000     0.100000000
     0.000000000     0.850000000     0.150000000
     0.050000000     0.800000000     0.150000000
     0.050000000     0.850000000     0.100000000
     0.050000000     0.800000000     0.250000000
     0.050000000     0.850000000     0.200000000
     0.000000000     0.800000000     0.300000000
     0.000000000     0.850000000     0.350000000
     0.050000000     0.800000000     0.350000000
     0.000000000     0.850000000     0.450000000
     0.050000000     0.800000000     0.450000000
     0.050000000     0.850000000     0.400000000
     0.000000000     0.850000000     0.550000000
     0.000000000     0.800000000     0.600000000
     0.000000000     0.850000000     0.650000000
     0.050000000     0.800000000     0.650000000
     0.000000000     0.800000000     0.700000000
     0.000000000     0.850000000     0.750000000
     0.050000000     0.850000000     0.700000000
     0.000000000     0.850000000     0.850000000
     0.050000000     0.800000000     0.850000000
     0.050000000     0.850000000     0.800000000
     0.000000000     0.800000000     0.900000000
     0.000000000     0.850000000     0.950000000
     0.050000000     0.800000000     0.950000000
     0.050000000     0.850000000     0.900000000
     0.000000000     0.950000000     0.050000000
     0.050000000     0.900000000     0.050000000
     0.050000000     0.950000000     0.000000000
     0.000000000     0.900000000     0.100000000
     0.000000000     0.950000000     0.150000000
     0.050000000     0.950000000     0.100000000
     0.000000000     0.900000000     0.200000000
     0.000000000     0.950000000     0.250000000
     0.050000000     0.950000000     0.200000000
     0.000000000     0.900000000     0.400000000
     0.000000000     0.950000000     0.450000000
     0.050000000     0.950000000     0.400000000
     0.000000000     0.900000000     0.500000000
     0.000000000     0.950000000     0.550000000
     0.050000000     0.950000000     0.500000000
     0.000000000     0.900000000     0.600000000
     0.000000000     0.950000000     0.650000000
     0.050000000     0.900000000     0.650000000
     0.050000000     0.900000000     0.750000000
     0.050000000     0.950000000     0.700000000
     0.000000000     0.900000000     0.800000000
     0.050000000     0.950000000     0.800000000
     0.000000000     0.900000000     0.900000000
     0.000000000     0.950000000     0.950000000
     0.050000000     0.900000000     0.950000000
     0.050000000     0.950000000     0.900000000
     0.100000000     0.000000000     0.000000000
     0.150000000     0.000000000     0.050000000
     0.150000000     0.050000000     0.000000000
     0.100000000     0.000000000     0.100000000
     0.150000000     0.000000000     0.150000000
     0.150000000     0.050000000     0.100000000
     0.100000000     0.000000000     0.200000000
     0.100000000     0.050000000     0.350000000
     0.150000000     0.000000000     0.350000000
     0.150000000     0.050000000     0.300000000
     0.100000000     0.050000000     0.450000000
     0.150000000     0.000000000     0.450000000
     0.150000000     0.050000000     0.400000000
     0.100000000     0.050000000     0.550000000
     0.150000000     0.000000000     0.550000000
     0.150000000     0.050000000     0.500000000
     0.100000000     0.000000000     0.600000000
     0.100000000     0.050000000     0.650000000
     0.150000000     0.000000000     0.650000000
     0.100000000     0.000000000     0.700000000
     0.150000000     0.000000000     0.750000000
     0.150000000     0.050000000     0.700000000
     0.150000000     0.000000000     0.950000000
     0.100000000     0.100000000     0.000000000
     0.100000000     0.150000000     0.050000000
     0.150000000     0.100000000     0.050000000
     0.150000000     0.150000000     0.000000000
     0.100000000     0.100000000     0.100000000
     0.150000000     0.100000000     0.150000000
     0.150000000     0.150000000     0.100000000
     0.100000000     0.100000000     0.200000000
     0.100000000     0.150000000     0.250000000
     0.150000000     0.100000000     0.250000000
     0.100000000     0.100000000     0.300000000
     0.100000000     0.150000000     0.350000000
     0.150000000     0.150000000     0.300000000
     0.100000000     0.100000000     0.400000000
     0.100000000     0.150000000     0.450000000
     0.150000000     0.100000000     0.450000000
     0.150000000     0.150000000     0.400000000
     0.100000000     0.100000000     0.500000000
     0.150000000     0.100000000     0.550000000
     0.150000000     0.150000000     0.500000000
     0.100000000     0.150000000     0.650000000
     0.150000000     0.150000000     0.600000000
     0.100000000     0.100000000     0.700000000
     0.150000000     0.100000000     0.750000000
     0.150000000     0.150000000     0.700000000
     0.100000000     0.100000000     0.800000000
     0.100000000     0.150000000     0.850000000
     0.150000000     0.100000000     0.850000000
     0.150000000     0.150000000     0.800000000
     0.100000000     0.150000000     0.950000000
     0.150000000     0.100000000     0.950000000
     0.150000000     0.150000000     0.900000000
     0.100000000     0.200000000     0.000000000
     0.100000000     0.250000000     0.050000000
     0.150000000     0.200000000     0.050000000
     0.150000000     0.250000000     0.000000000
     0.100000000     0.200000000     0.100000000
     0.150000000     0.200000000     0.150000000
     0.100000000     0.200000000     0.200000000
     0.100000000     0.250000000     0.250000000
     0.150000000     0.200000000     0.250000000
     0.100000000     0.200000000     0.300000000
     0.100000000     0.250000000     0.350000000
     0.150000000     0.200000000     0.350000000
     0.100000000     0.250000000     0.450000000
     0.150000000     0.200000000     0.450000000
     0.150000000     0.250000000     0.400000000
     0.100000000     0.200000000     0.500000000
     0.150000000     0.250000000     0.500000000
     0.100000000     0.250000000     0.650000000
     0.150000000     0.200000000     0.650000000
     0.100000000     0.200000000     0.700000000
     0.100000000     0.250000000     0.750000000
     0.150000000     0.200000000     0.750000000
     0.150000000     0.250000000     0.700000000
     0.100000000     0.200000000     0.800000000
     0.150000000     0.200000000     0.850000000
     0.100000000     0.250000000     0.950000000
     0.150000000     0.200000000     0.950000000
     0.150000000     0.250000000     0.900000000
     0.100000000     0.300000000     0.000000000
     0.150000000     0.300000000     0.050000000
     0.150000000     0.350000000     0.100000000
     0.100000000     0.300000000     0.200000000
     0.150000000     0.300000000     0.250000000
     0.150000000     0.350000000     0.200000000
     0.100000000     0.350000000     0.350000000
     0.150000000     0.300000000     0.350000000
     0.150000000     0.350000000     0.300000000
     0.100000000     0.300000000     0.400000000
     0.100000000     0.350000000     0.450000000
     0.150000000     0.300000000     0.450000000
     0.150000000     0.350000000     0.400000000
     0.100000000     0.300000000     0.500000000
     0.100000000     0.350000000     0.550000000
     0.150000000     0.300000000     0.550000000
     0.150000000     0.350000000     0.500000000
     0.100000000     0.300000000     0.600000000
     0.150000000     0.300000000     0.650000000
     0.150000000     0.350000000     0.600000000
     0.100000000     0.300000000     0.700000000
     0.100000000     0.350000000     0.750000000
     0.150000000     0.300000000     0.750000000
     0.150000000     0.350000000     0.700000000
     0.100000000     0.300000000     0.800000000
     0.100000000     0.350000000     0.850000000
     0.150000000     0.300000000     0.850000000
     0.150000000     0.350000000     0.800000000
     0.100000000     0.300000000     0.900000000
     0.100000000     0.350000000     0.950000000
     0.150000000     0.300000000     0.950000000
     0.150000000     0.350000000     0.900000000
     0.100000000     0.400000000     0.100000000
     0.100000000     0.450000000     0.150000000
     0.150000000     0.450000000     0.100000000
     0.100000000     0.400000000     0.200000000
     0.100000000     0.450000000     0.250000000
     0.150000000     0.400000000     0.250000000
     0.150000000     0.450000000     0.200000000
     0.150000000     0.400000000     0.350000000
     0.100000000     0.400000000     0.400000000
     0.100000000     0.450000000     0.450000000
     0.150000000     0.400000000     0.450000000
     0.150000000     0.450000000     0.400000000
     0.100000000     0.450000000     0.550000000
     0.150000000     0.450000000     0.500000000
     0.100000000     0.400000000     0.700000000
     0.100000000     0.450000000     0.750000000
     0.150000000     0.400000000     0.750000000
     0.150000000     0.450000000     0.700000000
     0.100000000     0.450000000     0.850000000
     0.150000000     0.400000000     0.850000000
     0.100000000     0.400000000     0.900000000
     0.150000000     0.400000000     0.950000000
     0.150000000     0.500000000     0.050000000
     0.150000000     0.550000000     0.000000000
     0.100000000     0.500000000     0.100000000
     0.100000000     0.550000000     0.150000000
     0.150000000     0.500000000     0.150000000
     0.100000000     0.500000000     0.200000000
     0.100000000     0.550000000     0.250000000
     0.100000000     0.550000000     0.350000000
     0.150000000     0.500000000     0.350000000
     0.150000000     0.550000000     0.300000000
     0.100000000     0.500000000     0.400000000
     0.100000000     0.550000000     0.450000000
     0.150000000     0.550000000     0.400000000
     0.100000000     0.500000000     0.500000000
     0.100000000     0.550000000     0.550000000
     0.150000000     0.500000000     0.550000000
     0.100000000     0.500000000     0.600000000
     0.150000000     0.500000000     0.650000000
     0.150000000     0.550000000     0.600000000
     0.100000000     0.550000000     0.750000000
     0.150000000     0.550000000     0.700000000
     0.100000000     0.550000000     0.850000000
     0.150000000     0.550000000     0.800000000
     0.100000000     0.500000000     0.900000000
     0.150000000     0.500000000     0.950000000
     0.100000000     0.600000000     0.000000000
     0.100000000     0.650000000     0.050000000
     0.150000000     0.600000000     0.050000000
     0.100000000     0.600000000     0.100000000
     0.100000000     0.650000000     0.150000000
     0.150000000     0.600000000     0.150000000
     0.150000000     0.650000000     0.100000000
     0.100000000     0.600000000     0.200000000
     0.150000000     0.600000000     0.250000000
     0.150000000     0.650000000     0.200000000
     0.100000000     0.650000000     0.350000000
     0.150000000     0.650000000     0.300000000
     0.100000000     0.600000000     0.400000000
     0.150000000     0.650000000     0.400000000
     0.100000000     0.600000000     0.500000000
     0.150000000     0.600000000     0.550000000
     0.150000000     0.650000000     0.500000000
     0.150000000     0.600000000     0.650000000
     0.150000000     0.650000000     0.600000000
     0.100000000     0.600000000     0.700000000
     0.150000000     0.600000000     0.750000000
     0.150000000     0.650000000     0.700000000
     0.100000000     0.600000000     0.800000000
     0.150000000     0.650000000     0.800000000
     0.100000000     0.650000000     0.950000000
     0.150000000     0.600000000     0.950000000
     0.100000000     0.700000000     0.000000000
     0.100000000     0.750000000     0.050000000
     0.150000000     0.700000000     0.050000000
     0.150000000     0.750000000     0.000000000
     0.100000000     0.700000000     0.100000000
     0.150000000     0.700000000     0.150000000
     0.150000000     0.750000000     0.100000000
     0.100000000     0.700000000     0.200000000
     0.100000000     0.750000000     0.250000000
     0.150000000     0.750000000     0.200000000
     0.100000000     0.700000000     0.300000000
     0.150000000     0.700000000     0.350000000
     0.150000000     0.750000000     0.300000000
     0.100000000     0.750000000     0.450000000
     0.150000000     0.700000000     0.450000000
     0.150000000     0.750000000     0.400000000
     0.100000000     0.750000000     0.550000000
     0.150000000     0.700000000     0.550000000
     0.100000000     0.700000000     0.600000000
     0.150000000     0.700000000     0.650000000
     0.100000000     0.750000000     0.750000000
     0.150000000     0.700000000     0.750000000
     0.150000000     0.700000000     0.850000000
     0.150000000     0.750000000     0.800000000
     0.100000000     0.700000000     0.900000000
     0.100000000     0.750000000     0.950000000
     0.150000000     0.700000000     0.950000000
     0.150000000     0.750000000     0.900000000
     0.100000000     0.850000000     0.050000000
     0.150000000     0.800000000     0.050000000
     0.150000000     0.850000000     0.000000000
     0.100000000     0.850000000     0.150000000
     0.150000000     0.850000000     0.100000000
     0.100000000     0.800000000     0.200000000
     0.150000000     0.800000000     0.250000000
     0.150000000     0.850000000     0.200000000
     0.100000000     0.800000000     0.300000000
     0.100000000     0.850000000     0.350000000
     0.150000000     0.800000000     0.350000000
     0.100000000     0.800000000     0.400000000
     0.100000000     0.850000000     0.450000000
     0.150000000     0.800000000     0.450000000
     0.150000000     0.850000000     0.400000000
     0.150000000     0.850000000     0.500000000
     0.100000000     0.800000000     0.600000000
     0.100000000     0.850000000     0.650000000
     0.150000000     0.850000000     0.600000000
     0.150000000     0.800000000     0.750000000
     0.150000000     0.850000000     0.700000000
     0.100000000     0.800000000     0.800000000
     0.150000000     0.800000000     0.850000000
     0.100000000     0.850000000     0.950000000
     0.150000000     0.800000000     0.950000000
     0.150000000     0.900000000     0.050000000
     0.100000000     0.900000000     0.100000000
     0.100000000     0.950000000     0.150000000
     0.150000000     0.900000000     0.150000000
     0.150000000     0.950000000     0.100000000
     0.100000000     0.950000000     0.250000000
     0.150000000     0.900000000     0.250000000
     0.150000000     0.950000000     0.200000000
     0.100000000     0.950000000     0.350000000
     0.150000000     0.900000000     0.350000000
     0.150000000     0.950000000     0.300000000
     0.100000000     0.900000000     0.400000000
     0.100000000     0.950000000     0.450000000
     0.150000000     0.900000000     0.450000000
     0.100000000     0.900000000     0.500000000
     0.100000000     0.950000000     0.550000000
     0.150000000     0.950000000     0.500000000
     0.100000000     0.900000000     0.600000000
     0.100000000     0.950000000     0.650000000
     0.150000000     0.900000000     0.650000000
     0.100000000     0.900000000     0.700000000
     0.100000000     0.950000000     0.750000000
     0.100000000     0.900000000     0.800000000
     0.100000000     0.950000000     0.850000000
     0.100000000     0.900000000     0.900000000
     0.100000000     0.950000000     0.950000000
     0.150000000     0.900000000     0.950000000
     0.150000000     0.950000000     0.900000000
     0.200000000     0.050000000     0.050000000
     0.250000000     0.000000000     0.050000000
     0.250000000     0.050000000     0.000000000
     0.200000000     0.000000000     0.100000000
     0.200000000     0.050000000     0.150000000
     0.250000000     0.000000000     0.150000000
     0.250000000     0.050000000     0.100000000
     0.200000000     0.050000000     0.250000000
     0.250000000     0.000000000     0.250000000
     0.250000000     0.050000000     0.200000000
     0.200000000     0.050000000     0.350000000
     0.250000000     0.000000000     0.350000000
     0.200000000     0.000000000     0.400000000
     0.200000000     0.050000000     0.450000000
     0.250000000     0.000000000     0.450000000
     0.200000000     0.000000000     0.500000000
     0.200000000     0.050000000     0.550000000
     0.250000000     0.050000000     0.500000000
     0.200000000     0.000000000     0.600000000
     0.200000000     0.050000000     0.650000000
     0.200000000     0.000000000     0.700000000
     0.250000000     0.050000000     0.700000000
     0.250000000     0.000000000     0.850000000
     0.200000000     0.000000000     0.900000000
     0.200000000     0.050000000     0.950000000
     0.250000000     0.000000000     0.950000000
     0.250000000     0.050000000     0.900000000
     0.200000000     0.150000000     0.050000000
     0.250000000     0.100000000     0.050000000
     0.200000000     0.100000000     0.100000000
     0.200000000     0.150000000     0.150000000
     0.250000000     0.100000000     0.150000000
     0.250000000     0.150000000     0.100000000
     0.200000000     0.150000000     0.250000000
     0.250000000     0.100000000     0.250000000
     0.200000000     0.100000000     0.300000000
     0.200000000     0.150000000     0.350000000
     0.250000000     0.100000000     0.350000000
     0.250000000     0.150000000     0.300000000
     0.200000000     0.100000000     0.400000000
     0.250000000     0.100000000     0.450000000
     0.250000000     0.150000000     0.400000000
     0.200000000     0.100000000     0.500000000
     0.200000000     0.150000000     0.550000000
     0.250000000     0.100000000     0.550000000
     0.250000000     0.150000000     0.500000000
     0.200000000     0.100000000     0.600000000
     0.200000000     0.150000000     0.650000000
     0.250000000     0.100000000     0.750000000
     0.250000000     0.150000000     0.700000000
     0.200000000     0.100000000     0.800000000
     0.200000000     0.150000000     0.850000000
     0.250000000     0.100000000     0.850000000
     0.250000000     0.150000000     0.800000000
     0.200000000     0.100000000     0.900000000
     0.200000000     0.150000000     0.950000000
     0.250000000     0.100000000     0.950000000
     0.250000000     0.150000000     0.900000000
     0.200000000     0.200000000     0.000000000
     0.200000000     0.250000000     0.050000000
     0.250000000     0.250000000     0.000000000
     0.200000000     0.200000000     0.100000000
     0.200000000     0.250000000     0.150000000
     0.250000000     0.200000000     0.150000000
     0.250000000     0.250000000     0.100000000
     0.200000000     0.250000000     0.250000000
     0.250000000     0.200000000     0.250000000
     0.200000000     0.200000000     0.300000000
     0.200000000     0.250000000     0.350000000
     0.250000000     0.200000000     0.350000000
     0.250000000     0.250000000     0.300000000
     0.200000000     0.200000000     0.400000000
     0.200000000     0.250000000     0.450000000
     0.250000000     0.200000000     0.450000000
     0.250000000     0.250000000     0.400000000
     0.200000000     0.200000000     0.500000000
     0.250000000     0.200000000     0.550000000
     0.250000000     0.250000000     0.500000000
     0.200000000     0.200000000     0.600000000
     0.200000000     0.250000000     0.650000000
     0.250000000     0.200000000     0.650000000
     0.200000000     0.250000000     0.750000000
     0.250000000     0.200000000     0.750000000
     0.250000000     0.250000000     0.700000000
     0.200000000     0.200000000     0.900000000
     0.250000000     0.200000000     0.950000000
     0.250000000     0.250000000     0.900000000
     0.200000000     0.300000000     0.000000000
     0.200000000     0.350000000     0.050000000
     0.250000000     0.350000000     0.000000000
     0.200000000     0.350000000     0.150000000
     0.250000000     0.300000000     0.150000000
     0.200000000     0.300000000     0.200000000
     0.250000000     0.350000000     0.200000000
     0.200000000     0.350000000     0.350000000
     0.250000000     0.300000000     0.350000000
     0.250000000     0.350000000     0.300000000
     0.200000000     0.300000000     0.400000000
     0.200000000     0.300000000     0.500000000
     0.200000000     0.350000000     0.550000000
     0.250000000     0.300000000     0.550000000
     0.250000000     0.350000000     0.500000000
     0.200000000     0.300000000     0.600000000
     0.200000000     0.350000000     0.650000000
     0.250000000     0.300000000     0.650000000
     0.250000000     0.350000000     0.600000000
     0.200000000     0.350000000     0.750000000
     0.250000000     0.300000000     0.750000000
     0.200000000     0.300000000     0.800000000
     0.200000000     0.350000000     0.850000000
     0.250000000     0.300000000     0.850000000
     0.250000000     0.350000000     0.800000000
     0.200000000     0.300000000     0.900000000
     0.250000000     0.300000000     0.950000000
     0.250000000     0.350000000     0.900000000
     0.200000000     0.400000000     0.000000000
     0.200000000     0.450000000     0.050000000
     0.250000000     0.400000000     0.050000000
     0.250000000     0.450000000     0.000000000
     0.200000000     0.400000000     0.100000000
     0.200000000     0.450000000     0.150000000
     0.200000000     0.450000000     0.250000000
     0.250000000     0.400000000     0.250000000
     0.250000000     0.450000000     0.200000000
     0.200000000     0.400000000     0.300000000
     0.200000000     0.450000000     0.350000000
     0.250000000     0.400000000     0.350000000
     0.200000000     0.400000000     0.400000000
     0.250000000     0.450000000     0.400000000
     0.200000000     0.400000000     0.500000000
     0.250000000     0.400000000     0.550000000
     0.250000000     0.450000000     0.500000000
     0.200000000     0.400000000     0.600000000
     0.200000000     0.450000000     0.650000000
     0.250000000     0.400000000     0.650000000
     0.250000000     0.450000000     0.600000000
     0.200000000     0.400000000     0.700000000
     0.200000000     0.450000000     0.750000000
     0.250000000     0.400000000     0.750000000
     0.250000000     0.450000000     0.700000000
     0.200000000     0.400000000     0.800000000
     0.200000000     0.450000000     0.850000000
     0.250000000     0.400000000     0.850000000
     0.250000000     0.450000000     0.800000000
     0.200000000     0.400000000     0.900000000
     0.200000000     0.450000000     0.950000000
     0.250000000     0.400000000     0.950000000
     0.200000000     0.500000000     0.000000000
     0.200000000     0.550000000     0.050000000
     0.250000000     0.500000000     0.050000000
     0.250000000     0.550000000     0.000000000
     0.200000000     0.550000000     0.150000000
     0.250000000     0.550000000     0.100000000
     0.200000000     0.500000000     0.200000000
     0.200000000     0.550000000     0.250000000
     0.250000000     0.500000000     0.250000000
     0.250000000     0.550000000     0.200000000
     0.200000000     0.500000000     0.300000000
     0.250000000     0.500000000     0.350000000
     0.200000000     0.500000000     0.400000000
     0.200000000     0.550000000     0.550000000
     0.250000000     0.500000000     0.550000000
     0.250000000     0.550000000     0.500000000
     0.200000000     0.550000000     0.650000000
     0.250000000     0.550000000     0.600000000
     0.200000000     0.500000000     0.700000000
     0.200000000     0.550000000     0.750000000
     0.200000000     0.500000000     0.800000000
     0.200000000     0.550000000     0.850000000
     0.250000000     0.550000000     0.800000000
     0.200000000     0.550000000     0.950000000
     0.250000000     0.500000000     0.950000000
     0.250000000     0.550000000     0.900000000
     0.200000000     0.600000000     0.000000000
     0.200000000     0.650000000     0.050000000
     0.250000000     0.600000000     0.050000000
     0.250000000     0.650000000     0.000000000
     0.200000000     0.600000000     0.100000000
     0.200000000     0.650000000     0.150000000
     0.200000000     0.650000000     0.250000000
     0.250000000     0.600000000     0.250000000
     0.250000000     0.650000000     0.200000000
     0.250000000     0.600000000     0.350000000
     0.250000000     0.650000000     0.300000000
     0.200000000     0.600000000     0.400000000
     0.200000000     0.650000000     0.450000000
     0.250000000     0.650000000     0.400000000
     0.200000000     0.600000000     0.500000000
     0.200000000     0.650000000     0.550000000
     0.250000000     0.600000000     0.550000000
     0.250000000     0.650000000     0.500000000
     0.200000000     0.600000000     0.600000000
     0.200000000     0.650000000     0.650000000
     0.250000000     0.600000000     0.650000000
     0.250000000     0.650000000     0.600000000
     0.200000000     0.650000000     0.750000000
     0.250000000     0.650000000     0.700000000
     0.200000000     0.600000000     0.800000000
     0.250000000     0.600000000     0.850000000
     0.200000000     0.600000000     0.900000000
     0.250000000     0.600000000     0.950000000
     0.250000000     0.650000000     0.900000000
     0.200000000     0.700000000     0.000000000
     0.200000000     0.750000000     0.050000000
     0.250000000     0.700000000     0.050000000
     0.250000000     0.750000000     0.000000000
     0.200000000     0.700000000     0.100000000
     0.200000000     0.750000000     0.150000000
     0.250000000     0.700000000     0.150000000
     0.250000000     0.750000000     0.100000000
     0.200000000     0.750000000     0.250000000
     0.250000000     0.700000000     0.250000000
     0.250000000     0.750000000     0.200000000
     0.200000000     0.700000000     0.300000000
     0.200000000     0.750000000     0.350000000
     0.250000000     0.700000000     0.350000000
     0.250000000     0.750000000     0.300000000
     0.200000000     0.750000000     0.450000000
     0.250000000     0.700000000     0.450000000
     0.250000000     0.750000000     0.400000000
     0.200000000     0.700000000     0.500000000
     0.200000000     0.750000000     0.550000000
     0.250000000     0.700000000     0.550000000
     0.250000000     0.750000000     0.500000000
     0.200000000     0.700000000     0.600000000
     0.200000000     0.750000000     0.650000000
     0.250000000     0.700000000     0.650000000
     0.250000000     0.750000000     0.600000000
     0.200000000     0.750000000     0.750000000
     0.250000000     0.700000000     0.750000000
     0.250000000     0.750000000     0.700000000
     0.200000000     0.750000000     0.850000000
     0.250000000     0.700000000     0.850000000
     0.250000000     0.750000000     0.800000000
     0.200000000     0.700000000     0.900000000
     0.200000000     0.750000000     0.950000000
     0.250000000     0.700000000     0.950000000
     0.250000000     0.800000000     0.050000000
     0.250000000     0.850000000     0.000000000
     0.200000000     0.800000000     0.100000000
     0.200000000     0.850000000     0.150000000
     0.250000000     0.850000000     0.100000000
     0.200000000     0.850000000     0.250000000
     0.250000000     0.850000000     0.200000000
     0.200000000     0.800000000     0.300000000
     0.200000000     0.800000000     0.400000000
     0.200000000     0.850000000     0.450000000
     0.250000000     0.850000000     0.400000000
     0.250000000     0.800000000     0.550000000
     0.250000000     0.850000000     0.500000000
     0.200000000     0.800000000     0.600000000
     0.200000000     0.850000000     0.650000000
     0.250000000     0.800000000     0.650000000
     0.250000000     0.850000000     0.600000000
     0.200000000     0.800000000     0.700000000
     0.250000000     0.800000000     0.750000000
     0.250000000     0.850000000     0.700000000
     0.200000000     0.850000000     0.850000000
     0.250000000     0.800000000     0.850000000
     0.250000000     0.850000000     0.800000000
     0.250000000     0.800000000     0.950000000
     0.250000000     0.850000000     0.900000000
     0.200000000     0.900000000     0.000000000
     0.200000000     0.950000000     0.050000000
     0.250000000     0.900000000     0.050000000
     0.250000000     0.950000000     0.000000000
     0.200000000     0.900000000     0.100000000
     0.200000000     0.950000000     0.150000000
     0.250000000     0.900000000     0.150000000
     0.250000000     0.950000000     0.100000000
     0.200000000     0.900000000     0.200000000
     0.200000000     0.950000000     0.250000000
     0.250000000     0.900000000     0.250000000
     0.200000000     0.900000000     0.300000000
     0.200000000     0.950000000     0.350000000
     0.250000000     0.900000000     0.350000000
     0.250000000     0.950000000     0.300000000
     0.200000000     0.900000000     0.400000000
     0.200000000     0.950000000     0.450000000
     0.250000000     0.900000000     0.450000000
     0.250000000     0.950000000     0.400000000
     0.200000000     0.950000000     0.550000000
     0.250000000     0.900000000     0.550000000
     0.250000000     0.950000000     0.500000000
     0.200000000     0.950000000     0.650000000
     0.250000000     0.900000000     0.650000000
     0.200000000     0.900000000     0.700000000
     0.200000000     0.950000000     0.750000000
     0.250000000     0.900000000     0.750000000
     0.250000000     0.950000000     0.700000000
     0.200000000     0.900000000     0.800000000
     0.200000000     0.950000000     0.850000000
     0.250000000     0.900000000     0.850000000
     0.200000000     0.900000000     0.900000000
     0.200000000     0.950000000     0.950000000
     0.250000000     0.900000000     0.950000000
     0.250000000     0.950000000     0.900000000
     0.300000000     0.000000000     0.000000000
     0.300000000     0.050000000     0.050000000
     0.350000000     0.000000000     0.050000000
     0.300000000     0.000000000     0.100000000
     0.300000000     0.050000000     0.150000000
     0.350000000     0.050000000     0.100000000
     0.300000000     0.050000000     0.250000000
     0.350000000     0.000000000     0.250000000
     0.300000000     0.000000000     0.300000000
     0.300000000     0.050000000     0.350000000
     0.350000000     0.050000000     0.300000000
     0.300000000     0.000000000     0.400000000
     0.300000000     0.050000000     0.450000000
     0.350000000     0.000000000     0.450000000
     0.350000000     0.050000000     0.400000000
     0.300000000     0.000000000     0.500000000
     0.350000000     0.000000000     0.550000000
     0.350000000     0.050000000     0.500000000
     0.300000000     0.000000000     0.600000000
     0.300000000     0.050000000     0.650000000
     0.350000000     0.000000000     0.650000000
     0.300000000     0.000000000     0.700000000
     0.300000000     0.050000000     0.750000000
     0.350000000     0.050000000     0.700000000
     0.300000000     0.050000000     0.850000000
     0.350000000     0.000000000     0.950000000
     0.350000000     0.050000000     0.900000000
     0.300000000     0.100000000     0.000000000
     0.300000000     0.150000000     0.050000000
     0.350000000     0.100000000     0.050000000
     0.350000000     0.150000000     0.000000000
     0.300000000     0.100000000     0.100000000
     0.300000000     0.150000000     0.150000000
     0.350000000     0.150000000     0.100000000
     0.300000000     0.100000000     0.200000000
     0.300000000     0.150000000     0.250000000
     0.350000000     0.100000000     0.250000000
     0.350000000     0.150000000     0.200000000
     0.300000000     0.100000000     0.300000000
     0.350000000     0.100000000     0.350000000
     0.350000000     0.150000000     0.300000000
     0.300000000     0.100000000     0.400000000
     0.300000000     0.150000000     0.450000000
     0.350000000     0.150000000     0.400000000
     0.300000000     0.100000000     0.500000000
     0.300000000     0.150000000     0.550000000
     0.350000000     0.100000000     0.550000000
     0.350000000     0.150000000     0.500000000
     0.300000000     0.100000000     0.600000000
     0.350000000     0.100000000     0.650000000
     0.350000000     0.150000000     0.600000000
     0.300000000     0.100000000     0.700000000
     0.300000000     0.150000000     0.750000000
     0.350000000     0.100000000     0.750000000
     0.350000000     0.150000000     0.700000000
     0.300000000     0.150000000     0.850000000
     0.350000000     0.100000000     0.850000000
     0.350000000     0.150000000     0.800000000
     0.300000000     0.100000000     0.900000000
     0.300000000     0.150000000     0.950000000
     0.350000000     0.100000000     0.950000000
     0.350000000     0.150000000     0.900000000
     0.300000000     0.200000000     0.000000000
     0.350000000     0.250000000     0.000000000
     0.300000000     0.200000000     0.100000000
     0.300000000     0.250000000     0.150000000
     0.350000000     0.200000000     0.150000000
     0.300000000     0.200000000     0.200000000
     0.300000000     0.250000000     0.250000000
     0.350000000     0.250000000     0.200000000
     0.300000000     0.200000000     0.300000000
     0.300000000     0.250000000     0.350000000
     0.300000000     0.200000000     0.400000000
     0.300000000     0.250000000     0.450000000
     0.350000000     0.200000000     0.450000000
     0.350000000     0.250000000     0.400000000
     0.300000000     0.200000000     0.500000000
     0.300000000     0.250000000     0.550000000
     0.350000000     0.250000000     0.500000000
     0.350000000     0.200000000     0.650000000
     0.350000000     0.200000000     0.750000000
     0.300000000     0.250000000     0.850000000
     0.350000000     0.200000000     0.850000000
     0.350000000     0.250000000     0.800000000
     0.300000000     0.200000000     0.900000000
     0.300000000     0.250000000     0.950000000
     0.350000000     0.200000000     0.950000000
     0.350000000     0.250000000     0.900000000
     0.300000000     0.300000000     0.000000000
     0.300000000     0.350000000     0.050000000
     0.350000000     0.300000000     0.050000000
     0.350000000     0.350000000     0.000000000
     0.300000000     0.350000000     0.150000000
     0.350000000     0.300000000     0.150000000
     0.350000000     0.350000000     0.100000000
     0.300000000     0.300000000     0.200000000
     0.300000000     0.350000000     0.250000000
     0.350000000     0.300000000     0.250000000
     0.350000000     0.350000000     0.200000000
     0.300000000     0.300000000     0.300000000
     0.300000000     0.350000000     0.350000000
     0.350000000     0.350000000     0.300000000
     0.350000000     0.300000000     0.450000000
     0.300000000     0.300000000     0.500000000
     0.300000000     0.350000000     0.550000000
     0.350000000     0.350000000     0.500000000
     0.300000000     0.300000000     0.600000000
     0.300000000     0.350000000     0.650000000
     0.350000000     0.300000000     0.650000000
     0.350000000     0.350000000     0.600000000
     0.300000000     0.350000000     0.750000000
     0.350000000     0.300000000     0.750000000
     0.350000000     0.350000000     0.700000000
     0.300000000     0.350000000     0.850000000
     0.350000000     0.300000000     0.850000000
     0.350000000     0.350000000     0.800000000
     0.300000000     0.300000000     0.900000000
     0.300000000     0.350000000     0.950000000
     0.350000000     0.300000000     0.950000000
     0.300000000     0.450000000     0.050000000
     0.350000000     0.450000000     0.000000000
     0.300000000     0.400000000     0.100000000
     0.300000000     0.450000000     0.150000000
     0.350000000     0.400000000     0.150000000
     0.350000000     0.450000000     0.100000000
     0.300000000     0.450000000     0.250000000
     0.350000000     0.450000000     0.200000000
     0.350000000     0.400000000     0.350000000
     0.300000000     0.400000000     0.400000000
     0.300000000     0.450000000     0.450000000
     0.350000000     0.450000000     0.400000000
     0.350000000     0.400000000     0.650000000
     0.350000000     0.450000000     0.600000000
     0.300000000     0.400000000     0.700000000
     0.300000000     0.450000000     0.750000000
     0.350000000     0.400000000     0.750000000
     0.350000000     0.450000000     0.700000000
     0.300000000     0.400000000     0.800000000
     0.350000000     0.400000000     0.850000000
     0.300000000     0.400000000     0.900000000
     0.350000000     0.400000000     0.950000000
     0.350000000     0.450000000     0.900000000
     0.300000000     0.500000000     0.000000000
     0.300000000     0.550000000     0.050000000
     0.350000000     0.500000000     0.050000000
     0.350000000     0.550000000     0.000000000
     0.300000000     0.550000000     0.150000000
     0.350000000     0.500000000     0.150000000
     0.350000000     0.550000000     0.100000000
     0.300000000     0.550000000     0.250000000
     0.350000000     0.500000000     0.250000000
     0.300000000     0.550000000     0.350000000
     0.350000000     0.550000000     0.300000000
     0.300000000     0.500000000     0.400000000
     0.350000000     0.500000000     0.450000000
     0.300000000     0.500000000     0.500000000
     0.300000000     0.550000000     0.550000000
     0.350000000     0.500000000     0.550000000
     0.350000000     0.550000000     0.500000000
     0.300000000     0.500000000     0.600000000
     0.300000000     0.550000000     0.750000000
     0.350000000     0.500000000     0.750000000
     0.350000000     0.500000000     0.850000000
     0.300000000     0.500000000     0.900000000
     0.300000000     0.550000000     0.950000000
     0.350000000     0.550000000     0.900000000
     0.300000000     0.650000000     0.050000000
     0.350000000     0.600000000     0.050000000
     0.350000000     0.650000000     0.000000000
     0.350000000     0.600000000     0.150000000
     0.350000000     0.650000000     0.100000000
     0.300000000     0.600000000     0.200000000
     0.300000000     0.650000000     0.250000000
     0.350000000     0.650000000     0.200000000
     0.300000000     0.600000000     0.300000000
     0.350000000     0.600000000     0.350000000
     0.350000000     0.650000000     0.300000000
     0.300000000     0.600000000     0.400000000
     0.350000000     0.600000000     0.450000000
     0.350000000     0.650000000     0.400000000
     0.300000000     0.600000000     0.500000000
     0.350000000     0.600000000     0.550000000
     0.350000000     0.650000000     0.500000000
     0.300000000     0.600000000     0.600000000
     0.300000000     0.650000000     0.650000000
     0.350000000     0.600000000     0.650000000
     0.350000000     0.600000000     0.750000000
     0.350000000     0.650000000     0.700000000
     0.300000000     0.600000000     0.800000000
     0.300000000     0.650000000     0.850000000
     0.350000000     0.600000000     0.850000000
     0.350000000     0.650000000     0.800000000
     0.300000000     0.600000000     0.900000000
     0.300000000     0.650000000     0.950000000
     0.350000000     0.650000000     0.900000000
     0.350000000     0.750000000     0.000000000
     0.300000000     0.750000000     0.150000000
     0.350000000     0.700000000     0.150000000
     0.350000000     0.750000000     0.100000000
     0.300000000     0.700000000     0.200000000
     0.300000000     0.750000000     0.250000000
     0.350000000     0.700000000     0.250000000
     0.350000000     0.750000000     0.200000000
     0.300000000     0.750000000     0.350000000
     0.350000000     0.750000000     0.300000000
     0.300000000     0.700000000     0.400000000
     0.350000000     0.700000000     0.450000000
     0.300000000     0.750000000     0.550000000
     0.350000000     0.700000000     0.550000000
     0.350000000     0.750000000     0.500000000
     0.300000000     0.700000000     0.600000000
     0.350000000     0.700000000     0.650000000
     0.350000000     0.750000000     0.600000000
     0.300000000     0.700000000     0.700000000
     0.350000000     0.700000000     0.750000000
     0.350000000     0.750000000     0.700000000
     0.300000000     0.750000000     0.850000000
     0.350000000     0.700000000     0.850000000
     0.300000000     0.700000000     0.900000000
     0.350000000     0.700000000     0.950000000
     0.350000000     0.750000000     0.900000000
     0.300000000     0.800000000     0.000000000
     0.300000000     0.850000000     0.050000000
     0.350000000     0.850000000     0.000000000
     0.300000000     0.850000000     0.150000000
     0.350000000     0.800000000     0.150000000
     0.350000000     0.800000000     0.250000000
     0.350000000     0.850000000     0.200000000
     0.300000000     0.800000000     0.300000000
     0.300000000     0.850000000     0.350000000
     0.350000000     0.800000000     0.350000000
     0.350000000     0.850000000     0.300000000
     0.350000000     0.800000000     0.450000000
     0.300000000     0.800000000     0.500000000
     0.300000000     0.850000000     0.550000000
     0.350000000     0.800000000     0.550000000
     0.350000000     0.800000000     0.650000000
     0.300000000     0.800000000     0.700000000
     0.350000000     0.800000000     0.750000000
     0.350000000     0.850000000     0.700000000
     0.350000000     0.800000000     0.850000000
     0.350000000     0.850000000     0.800000000
     0.300000000     0.800000000     0.900000000
     0.300000000     0.850000000     0.950000000
     0.350000000     0.800000000     0.950000000
     0.350000000     0.850000000     0.900000000
     0.300000000     0.900000000     0.000000000
     0.300000000     0.950000000     0.050000000
     0.350000000     0.900000000     0.050000000
     0.350000000     0.950000000     0.000000000
     0.300000000     0.900000000     0.100000000
     0.300000000     0.950000000     0.150000000
     0.350000000     0.900000000     0.150000000
     0.350000000     0.950000000     0.100000000
     0.300000000     0.950000000     0.250000000
     0.350000000     0.900000000     0.250000000
     0.350000000     0.950000000     0.200000000
     0.350000000     0.900000000     0.350000000
     0.350000000     0.950000000     0.300000000
     0.300000000     0.900000000     0.400000000
     0.300000000     0.950000000     0.450000000
     0.350000000     0.900000000     0.450000000
     0.350000000     0.950000000     0.400000000
     0.300000000     0.900000000     0.500000000
     0.350000000     0.900000000     0.550000000
     0.300000000     0.900000000     0.600000000
     0.300000000     0.950000000     0.650000000
     0.350000000     0.900000000     0.650000000
     0.350000000     0.950000000     0.600000000
     0.300000000     0.900000000     0.700000000
     0.300000000     0.950000000     0.750000000
     0.350000000     0.900000000     0.750000000
     0.350000000     0.950000000     0.700000000
     0.350000000     0.900000000     0.850000000
     0.300000000     0.900000000     0.900000000
     0.350000000     0.950000000     0.900000000
     0.400000000     0.000000000     0.000000000
     0.450000000     0.050000000     0.000000000
     0.400000000     0.000000000     0.100000000
     0.400000000     0.050000000     0.150000000
     0.450000000     0.000000000     0.150000000
     0.400000000     0.000000000     0.200000000
     0.450000000     0.000000000     0.250000000
     0.400000000     0.000000000     0.300000000
     0.400000000     0.050000000     0.350000000
     0.400000000     0.050000000     0.450000000
     0.450000000     0.000000000     0.450000000
     0.450000000     0.050000000     0.400000000
     0.400000000     0.000000000     0.500000000
     0.400000000     0.050000000     0.550000000
     0.450000000     0.000000000     0.550000000
     0.450000000     0.050000000     0.500000000
     0.400000000     0.000000000     0.600000000
     0.400000000     0.050000000     0.650000000
     0.450000000     0.000000000     0.650000000
     0.450000000     0.050000000     0.600000000
     0.400000000     0.000000000     0.700000000
     0.400000000     0.050000000     0.750000000
     0.450000000     0.000000000     0.750000000
     0.450000000     0.050000000     0.700000000
     0.400000000     0.000000000     0.800000000
     0.450000000     0.050000000     0.800000000
     0.400000000     0.050000000     0.950000000
     0.450000000     0.050000000     0.900000000
     0.400000000     0.100000000     0.000000000
     0.400000000     0.150000000     0.050000000
     0.450000000     0.100000000     0.050000000
     0.450000000     0.150000000     0.000000000
     0.400000000     0.100000000     0.100000000
     0.400000000     0.150000000     0.150000000
     0.450000000     0.150000000     0.100000000
     0.400000000     0.150000000     0.250000000
     0.450000000     0.100000000     0.250000000
     0.450000000     0.150000000     0.200000000
     0.400000000     0.150000000     0.350000000
     0.400000000     0.100000000     0.500000000
     0.400000000     0.150000000     0.550000000
     0.450000000     0.100000000     0.550000000
     0.400000000     0.100000000     0.600000000
     0.400000000     0.150000000     0.650000000
     0.450000000     0.100000000     0.650000000
     0.450000000     0.150000000     0.600000000
     0.400000000     0.100000000     0.700000000
     0.400000000     0.150000000     0.750000000
     0.450000000     0.100000000     0.750000000
     0.450000000     0.150000000     0.700000000
     0.400000000     0.150000000     0.850000000
     0.450000000     0.100000000     0.850000000
     0.450000000     0.150000000     0.800000000
     0.400000000     0.150000000     0.950000000
     0.450000000     0.100000000     0.950000000
     0.400000000     0.250000000     0.050000000
     0.450000000     0.200000000     0.050000000
     0.450000000     0.250000000     0.000000000
     0.400000000     0.250000000     0.150000000
     0.450000000     0.200000000     0.150000000
     0.450000000     0.250000000     0.100000000
     0.400000000     0.200000000     0.200000000
     0.400000000     0.250000000     0.250000000
     0.400000000     0.200000000     0.300000000
     0.400000000     0.250000000     0.350000000
     0.450000000     0.200000000     0.350000000
     0.450000000     0.250000000     0.300000000
     0.400000000     0.200000000     0.400000000
     0.400000000     0.250000000     0.450000000
     0.450000000     0.200000000     0.450000000
     0.400000000     0.200000000     0.500000000
     0.400000000     0.250000000     0.550000000
     0.450000000     0.200000000     0.550000000
     0.450000000     0.250000000     0.500000000
     0.400000000     0.200000000     0.600000000
     0.450000000     0.200000000     0.650000000
     0.450000000     0.250000000     0.600000000
     0.400000000     0.200000000     0.700000000
     0.400000000     0.250000000     0.750000000
     0.450000000     0.200000000     0.750000000
     0.450000000     0.250000000     0.700000000
     0.400000000     0.200000000     0.800000000
     0.450000000     0.200000000     0.850000000
     0.450000000     0.250000000     0.800000000
     0.400000000     0.200000000     0.900000000
     0.400000000     0.250000000     0.950000000
     0.450000000     0.200000000     0.950000000
     0.400000000     0.300000000     0.000000000
     0.400000000     0.350000000     0.050000000
     0.400000000     0.350000000     0.150000000
     0.450000000     0.300000000     0.150000000
     0.400000000     0.300000000     0.200000000
     0.400000000     0.350000000     0.250000000
     0.450000000     0.300000000     0.250000000
     0.450000000     0.350000000     0.200000000
     0.400000000     0.350000000     0.350000000
     0.450000000     0.300000000     0.350000000
     0.450000000     0.350000000     0.300000000
     0.400000000     0.300000000     0.400000000
     0.400000000     0.350000000     0.450000000
     0.450000000     0.300000000     0.450000000
     0.450000000     0.350000000     0.400000000
     0.400000000     0.300000000     0.500000000
     0.400000000     0.350000000     0.550000000
     0.400000000     0.300000000     0.600000000
     0.400000000     0.350000000     0.650000000
     0.450000000     0.350000000     0.600000000
     0.400000000     0.300000000     0.700000000
     0.450000000     0.300000000     0.750000000
     0.450000000     0.350000000     0.700000000
     0.400000000     0.300000000     0.800000000
     0.400000000     0.350000000     0.850000000
     0.450000000     0.300000000     0.850000000
     0.450000000     0.350000000     0.800000000
     0.400000000     0.350000000     0.950000000
     0.450000000     0.350000000     0.900000000
     0.400000000     0.400000000     0.000000000
     0.400000000     0.450000000     0.050000000
     0.450000000     0.400000000     0.050000000
     0.450000000     0.450000000     0.000000000
     0.400000000     0.400000000     0.100000000
     0.400000000     0.450000000     0.150000000
     0.450000000     0.400000000     0.150000000
     0.400000000     0.400000000     0.200000000
     0.400000000     0.450000000     0.250000000
     0.450000000     0.400000000     0.250000000
     0.450000000     0.450000000     0.200000000
     0.400000000     0.400000000     0.300000000
     0.400000000     0.450000000     0.350000000
     0.450000000     0.400000000     0.350000000
     0.400000000     0.400000000     0.400000000
     0.400000000     0.450000000     0.450000000
     0.450000000     0.400000000     0.450000000
     0.450000000     0.450000000     0.400000000
     0.400000000     0.400000000     0.500000000
     0.450000000     0.400000000     0.550000000
     0.400000000     0.400000000     0.600000000
     0.400000000     0.450000000     0.650000000
     0.450000000     0.400000000     0.650000000
     0.400000000     0.400000000     0.700000000
     0.400000000     0.450000000     0.750000000
     0.450000000     0.400000000     0.750000000
     0.400000000     0.400000000     0.800000000
     0.400000000     0.450000000     0.850000000
     0.450000000     0.450000000     0.800000000
     0.400000000     0.400000000     0.900000000
     0.450000000     0.400000000     0.950000000
     0.450000000     0.450000000     0.900000000
     0.400000000     0.500000000     0.000000000
     0.400000000     0.550000000     0.050000000
     0.450000000     0.500000000     0.050000000
     0.400000000     0.500000000     0.100000000
     0.450000000     0.500000000     0.150000000
     0.450000000     0.550000000     0.100000000
     0.400000000     0.500000000     0.200000000
     0.400000000     0.550000000     0.250000000
     0.450000000     0.500000000     0.250000000
     0.450000000     0.550000000     0.200000000
     0.400000000     0.500000000     0.300000000
     0.400000000     0.550000000     0.350000000
     0.450000000     0.500000000     0.350000000
     0.450000000     0.550000000     0.300000000
     0.400000000     0.500000000     0.400000000
     0.450000000     0.550000000     0.400000000
     0.400000000     0.500000000     0.500000000
     0.400000000     0.550000000     0.550000000
     0.450000000     0.500000000     0.550000000
     0.450000000     0.550000000     0.500000000
     0.400000000     0.500000000     0.600000000
     0.400000000     0.550000000     0.650000000
     0.450000000     0.500000000     0.650000000
     0.400000000     0.550000000     0.750000000
     0.450000000     0.500000000     0.750000000
     0.450000000     0.550000000     0.700000000
     0.400000000     0.550000000     0.850000000
     0.450000000     0.500000000     0.850000000
     0.450000000     0.550000000     0.800000000
     0.400000000     0.500000000     0.900000000
     0.400000000     0.550000000     0.950000000
     0.450000000     0.500000000     0.950000000
     0.450000000     0.550000000     0.900000000
     0.400000000     0.600000000     0.000000000
     0.400000000     0.650000000     0.050000000
     0.450000000     0.600000000     0.050000000
     0.450000000     0.650000000     0.000000000
     0.400000000     0.650000000     0.150000000
     0.450000000     0.600000000     0.150000000
     0.450000000     0.650000000     0.100000000
     0.400000000     0.600000000     0.200000000
     0.400000000     0.650000000     0.250000000
     0.450000000     0.600000000     0.250000000
     0.400000000     0.650000000     0.350000000
     0.450000000     0.600000000     0.350000000
     0.450000000     0.650000000     0.300000000
     0.400000000     0.600000000     0.400000000
     0.400000000     0.600000000     0.500000000
     0.400000000     0.650000000     0.550000000
     0.450000000     0.600000000     0.550000000
     0.400000000     0.600000000     0.600000000
     0.450000000     0.600000000     0.650000000
     0.450000000     0.650000000     0.600000000
     0.400000000     0.600000000     0.700000000
     0.400000000     0.650000000     0.750000000
     0.450000000     0.600000000     0.750000000
     0.450000000     0.650000000     0.700000000
     0.400000000     0.600000000     0.800000000
     0.400000000     0.650000000     0.850000000
     0.450000000     0.650000000     0.800000000
     0.400000000     0.600000000     0.900000000
     0.400000000     0.650000000     0.950000000
     0.450000000     0.600000000     0.950000000
     0.450000000     0.650000000     0.900000000
     0.400000000     0.700000000     0.000000000
     0.400000000     0.750000000     0.050000000
     0.450000000     0.700000000     0.050000000
     0.400000000     0.700000000     0.100000000
     0.400000000     0.750000000     0.150000000
     0.450000000     0.700000000     0.150000000
     0.400000000     0.750000000     0.250000000
     0.450000000     0.700000000     0.250000000
     0.450000000     0.750000000     0.200000000
     0.400000000     0.750000000     0.350000000
     0.450000000     0.700000000     0.350000000
     0.450000000     0.750000000     0.300000000
     0.400000000     0.750000000     0.450000000
     0.450000000     0.750000000     0.400000000
     0.400000000     0.750000000     0.550000000
     0.450000000     0.750000000     0.500000000
     0.400000000     0.750000000     0.650000000
     0.450000000     0.700000000     0.650000000
     0.400000000     0.700000000     0.700000000
     0.400000000     0.750000000     0.750000000
     0.400000000     0.750000000     0.850000000
     0.450000000     0.750000000     0.800000000
     0.400000000     0.700000000     0.900000000
     0.400000000     0.750000000     0.950000000
     0.450000000     0.700000000     0.950000000
     0.400000000     0.800000000     0.000000000
     0.400000000     0.850000000     0.050000000
     0.450000000     0.800000000     0.050000000
     0.450000000     0.850000000     0.000000000
     0.400000000     0.800000000     0.100000000
     0.400000000     0.850000000     0.150000000
     0.450000000     0.800000000     0.150000000
     0.450000000     0.850000000     0.100000000
     0.400000000     0.850000000     0.250000000
     0.400000000     0.800000000     0.300000000
     0.400000000     0.850000000     0.350000000
     0.450000000     0.800000000     0.350000000
     0.450000000     0.800000000     0.450000000
     0.450000000     0.850000000     0.400000000
     0.400000000     0.800000000     0.500000000
     0.400000000     0.850000000     0.550000000
     0.450000000     0.850000000     0.500000000
     0.400000000     0.800000000     0.600000000
     0.400000000     0.850000000     0.650000000
     0.450000000     0.800000000     0.650000000
     0.450000000     0.850000000     0.600000000
     0.400000000     0.800000000     0.700000000
     0.450000000     0.850000000     0.700000000
     0.400000000     0.800000000     0.800000000
     0.400000000     0.850000000     0.850000000
     0.450000000     0.800000000     0.850000000
     0.450000000     0.850000000     0.800000000
     0.450000000     0.800000000     0.950000000
     0.450000000     0.850000000     0.900000000
     0.400000000     0.900000000     0.000000000
     0.400000000     0.950000000     0.050000000
     0.450000000     0.900000000     0.050000000
     0.450000000     0.950000000     0.000000000
     0.400000000     0.900000000     0.100000000
     0.450000000     0.900000000     0.150000000
     0.450000000     0.950000000     0.100000000
     0.400000000     0.950000000     0.250000000
     0.450000000     0.900000000     0.250000000
     0.450000000     0.950000000     0.200000000
     0.400000000     0.900000000     0.300000000
     0.400000000     0.950000000     0.350000000
     0.450000000     0.950000000     0.300000000
     0.400000000     0.900000000     0.400000000
     0.400000000     0.950000000     0.450000000
     0.450000000     0.900000000     0.450000000
     0.450000000     0.950000000     0.400000000
     0.400000000     0.900000000     0.500000000
     0.400000000     0.950000000     0.550000000
     0.450000000     0.900000000     0.550000000
     0.450000000     0.950000000     0.500000000
     0.400000000     0.900000000     0.600000000
     0.400000000     0.950000000     0.650000000
     0.450000000     0.900000000     0.650000000
     0.450000000     0.950000000     0.600000000
     0.400000000     0.900000000     0.700000000
     0.400000000     0.950000000     0.750000000
     0.450000000     0.900000000     0.750000000
     0.450000000     0.950000000     0.700000000
     0.450000000     0.900000000     0.850000000
     0.450000000     0.950000000     0.800000000
     0.400000000     0.900000000     0.900000000
     0.400000000     0.950000000     0.950000000
     0.450000000     0.900000000     0.950000000
     0.500000000     0.000000000     0.000000000
     0.500000000     0.050000000     0.050000000
     0.550000000     0.000000000     0.050000000
     0.550000000     0.050000000     0.000000000
     0.500000000     0.050000000     0.150000000
     0.500000000     0.000000000     0.200000000
     0.500000000     0.050000000     0.250000000
     0.550000000     0.050000000     0.200000000
     0.500000000     0.000000000     0.300000000
     0.500000000     0.050000000     0.350000000
     0.550000000     0.000000000     0.350000000
     0.550000000     0.050000000     0.300000000
     0.500000000     0.000000000     0.400000000
     0.500000000     0.050000000     0.450000000
     0.550000000     0.000000000     0.450000000
     0.550000000     0.050000000     0.400000000
     0.500000000     0.000000000     0.500000000
     0.500000000     0.050000000     0.550000000
     0.500000000     0.000000000     0.600000000
     0.550000000     0.000000000     0.650000000
     0.550000000     0.050000000     0.600000000
     0.500000000     0.000000000     0.700000000
     0.500000000     0.050000000     0.750000000
     0.550000000     0.050000000     0.700000000
     0.500000000     0.050000000     0.850000000
     0.550000000     0.000000000     0.850000000
     0.550000000     0.050000000     0.800000000
     0.500000000     0.050000000     0.950000000
     0.550000000     0.050000000     0.900000000
     0.550000000     0.100000000     0.050000000
     0.500000000     0.100000000     0.100000000
     0.550000000     0.150000000     0.100000000
     0.500000000     0.100000000     0.200000000
     0.500000000     0.150000000     0.250000000
     0.550000000     0.100000000     0.250000000
     0.550000000     0.150000000     0.200000000
     0.500000000     0.100000000     0.300000000
     0.500000000     0.150000000     0.350000000
     0.550000000     0.150000000     0.300000000
     0.500000000     0.100000000     0.400000000
     0.500000000     0.150000000     0.450000000
     0.550000000     0.100000000     0.450000000
     0.550000000     0.150000000     0.400000000
     0.500000000     0.100000000     0.500000000
     0.550000000     0.100000000     0.550000000
     0.550000000     0.150000000     0.500000000
     0.500000000     0.100000000     0.600000000
     0.500000000     0.150000000     0.650000000
     0.550000000     0.100000000     0.650000000
     0.550000000     0.150000000     0.600000000
     0.550000000     0.100000000     0.750000000
     0.550000000     0.150000000     0.700000000
     0.500000000     0.100000000     0.800000000
     0.500000000     0.150000000     0.850000000
     0.550000000     0.100000000     0.850000000
     0.550000000     0.150000000     0.800000000
     0.500000000     0.100000000     0.900000000
     0.550000000     0.100000000     0.950000000
     0.550000000     0.150000000     0.900000000
     0.500000000     0.200000000     0.000000000
     0.500000000     0.250000000     0.050000000
     0.550000000     0.200000000     0.050000000
     0.550000000     0.250000000     0.000000000
     0.500000000     0.200000000     0.100000000
     0.500000000     0.250000000     0.150000000
     0.550000000     0.200000000     0.150000000
     0.500000000     0.200000000     0.200000000
     0.500000000     0.250000000     0.250000000
     0.550000000     0.250000000     0.200000000
     0.500000000     0.250000000     0.350000000
     0.550000000     0.200000000     0.350000000
     0.550000000     0.250000000     0.300000000
     0.550000000     0.200000000     0.450000000
     0.500000000     0.200000000     0.500000000
     0.550000000     0.200000000     0.550000000
     0.550000000     0.250000000     0.500000000
     0.500000000     0.200000000     0.600000000
     0.500000000     0.250000000     0.650000000
     0.550000000     0.200000000     0.650000000
     0.550000000     0.250000000     0.600000000
     0.500000000     0.200000000     0.700000000
     0.500000000     0.250000000     0.750000000
     0.500000000     0.200000000     0.800000000
     0.500000000     0.250000000     0.850000000
     0.550000000     0.200000000     0.850000000
     0.500000000     0.200000000     0.900000000
     0.500000000     0.250000000     0.950000000
     0.550000000     0.200000000     0.950000000
     0.550000000     0.250000000     0.900000000
     0.500000000     0.350000000     0.050000000
     0.550000000     0.300000000     0.050000000
     0.550000000     0.350000000     0.000000000
     0.500000000     0.300000000     0.100000000
     0.500000000     0.350000000     0.150000000
     0.550000000     0.350000000     0.100000000
     0.500000000     0.300000000     0.200000000
     0.500000000     0.350000000     0.250000000
     0.550000000     0.300000000     0.250000000
     0.550000000     0.350000000     0.200000000
     0.500000000     0.300000000     0.300000000
     0.500000000     0.350000000     0.350000000
     0.550000000     0.300000000     0.350000000
     0.550000000     0.350000000     0.300000000
     0.500000000     0.300000000     0.400000000
     0.500000000     0.350000000     0.450000000
     0.550000000     0.300000000     0.450000000
     0.500000000     0.300000000     0.500000000
     0.500000000     0.350000000     0.550000000
     0.550000000     0.300000000     0.550000000
     0.550000000     0.350000000     0.500000000
     0.500000000     0.300000000     0.600000000
     0.500000000     0.350000000     0.650000000
     0.550000000     0.300000000     0.650000000
     0.550000000     0.350000000     0.600000000
     0.500000000     0.300000000     0.700000000
     0.500000000     0.350000000     0.750000000
     0.550000000     0.350000000     0.700000000
     0.550000000     0.300000000     0.850000000
     0.550000000     0.350000000     0.800000000
     0.500000000     0.300000000     0.900000000
     0.550000000     0.300000000     0.950000000
     0.500000000     0.400000000     0.000000000
     0.500000000     0.450000000     0.050000000
     0.500000000     0.400000000     0.100000000
     0.500000000     0.450000000     0.150000000
     0.500000000     0.400000000     0.200000000
     0.500000000     0.450000000     0.250000000
     0.550000000     0.400000000     0.250000000
     0.550000000     0.450000000     0.200000000
     0.500000000     0.450000000     0.350000000
     0.550000000     0.400000000     0.350000000
     0.500000000     0.400000000     0.400000000
     0.550000000     0.400000000     0.450000000
     0.550000000     0.450000000     0.400000000
     0.500000000     0.400000000     0.500000000
     0.500000000     0.450000000     0.550000000
     0.550000000     0.400000000     0.550000000
     0.500000000     0.400000000     0.600000000
     0.550000000     0.400000000     0.650000000
     0.550000000     0.450000000     0.600000000
     0.550000000     0.400000000     0.750000000
     0.550000000     0.450000000     0.700000000
     0.500000000     0.400000000     0.800000000
     0.500000000     0.450000000     0.850000000
     0.500000000     0.450000000     0.950000000
     0.500000000     0.500000000     0.000000000
     0.500000000     0.550000000     0.050000000
     0.550000000     0.550000000     0.000000000
     0.500000000     0.550000000     0.150000000
     0.550000000     0.500000000     0.150000000
     0.500000000     0.500000000     0.200000000
     0.500000000     0.550000000     0.250000000
     0.550000000     0.550000000     0.200000000
     0.500000000     0.500000000     0.300000000
     0.500000000     0.550000000     0.350000000
     0.550000000     0.500000000     0.350000000
     0.500000000     0.500000000     0.400000000
     0.500000000     0.550000000     0.450000000
     0.550000000     0.500000000     0.450000000
     0.550000000     0.550000000     0.400000000
     0.500000000     0.500000000     0.500000000
     0.500000000     0.550000000     0.550000000
     0.550000000     0.500000000     0.550000000
     0.550000000     0.550000000     0.500000000
     0.500000000     0.500000000     0.600000000
     0.500000000     0.550000000     0.650000000
     0.550000000     0.500000000     0.650000000
     0.550000000     0.550000000     0.600000000
     0.500000000     0.500000000     0.700000000
     0.500000000     0.550000000     0.750000000
     0.550000000     0.550000000     0.700000000
     0.500000000     0.500000000     0.800000000
     0.550000000     0.500000000     0.850000000
     0.550000000     0.550000000     0.800000000
     0.500000000     0.500000000     0.900000000
     0.500000000     0.550000000     0.950000000
     0.550000000     0.500000000     0.950000000
     0.550000000     0.550000000     0.900000000
     0.550000000     0.650000000     0.000000000
     0.500000000     0.650000000     0.150000000
     0.550000000     0.600000000     0.150000000
     0.550000000     0.650000000     0.100000000
     0.500000000     0.600000000     0.200000000
     0.500000000     0.600000000     0.300000000
     0.550000000     0.600000000     0.350000000
     0.500000000     0.650000000     0.450000000
     0.550000000     0.600000000     0.450000000
     0.550000000     0.650000000     0.400000000
     0.500000000     0.600000000     0.500000000
     0.500000000     0.650000000     0.550000000
     0.550000000     0.600000000     0.550000000
     0.500000000     0.600000000     0.600000000
     0.500000000     0.650000000     0.650000000
     0.550000000     0.600000000     0.650000000
     0.550000000     0.650000000     0.600000000
     0.500000000     0.650000000     0.750000000
     0.550000000     0.600000000     0.750000000
     0.550000000     0.650000000     0.700000000
     0.500000000     0.600000000     0.800000000
     0.500000000     0.650000000     0.850000000
     0.550000000     0.600000000     0.850000000
     0.550000000     0.650000000     0.800000000
     0.500000000     0.600000000     0.900000000
     0.500000000     0.650000000     0.950000000
     0.550000000     0.650000000     0.900000000
     0.500000000     0.750000000     0.050000000
     0.550000000     0.700000000     0.050000000
     0.550000000     0.750000000     0.000000000
     0.500000000     0.750000000     0.150000000
     0.550000000     0.700000000     0.150000000
     0.500000000     0.750000000     0.250000000
     0.550000000     0.700000000     0.250000000
     0.550000000     0.750000000     0.200000000
     0.500000000     0.750000000     0.350000000
     0.550000000     0.750000000     0.300000000
     0.500000000     0.750000000     0.450000000
     0.550000000     0.750000000     0.400000000
     0.500000000     0.750000000     0.550000000
     0.550000000     0.700000000     0.550000000
     0.550000000     0.750000000     0.500000000
     0.500000000     0.700000000     0.600000000
     0.500000000     0.750000000     0.650000000
     0.550000000     0.700000000     0.650000000
     0.500000000     0.700000000     0.700000000
     0.550000000     0.700000000     0.850000000
     0.550000000     0.750000000     0.800000000
     0.500000000     0.700000000     0.900000000
     0.500000000     0.750000000     0.950000000
     0.550000000     0.700000000     0.950000000
     0.550000000     0.750000000     0.900000000
     0.500000000     0.800000000     0.000000000
     0.500000000     0.850000000     0.050000000
     0.550000000     0.800000000     0.050000000
     0.500000000     0.800000000     0.100000000
     0.550000000     0.800000000     0.150000000
     0.550000000     0.850000000     0.100000000
     0.500000000     0.800000000     0.200000000
     0.550000000     0.800000000     0.250000000
     0.550000000     0.850000000     0.200000000
     0.500000000     0.800000000     0.300000000
     0.500000000     0.850000000     0.350000000
     0.550000000     0.800000000     0.350000000
     0.550000000     0.850000000     0.300000000
     0.500000000     0.800000000     0.400000000
     0.500000000     0.850000000     0.450000000
     0.550000000     0.800000000     0.450000000
     0.550000000     0.850000000     0.400000000
     0.500000000     0.800000000     0.500000000
     0.500000000     0.850000000     0.550000000
     0.550000000     0.800000000     0.550000000
     0.550000000     0.850000000     0.500000000
     0.500000000     0.850000000     0.650000000
     0.550000000     0.800000000     0.650000000
     0.500000000     0.800000000     0.700000000
     0.550000000     0.800000000     0.750000000
     0.550000000     0.850000000     0.700000000
     0.500000000     0.800000000     0.800000000
     0.550000000     0.800000000     0.850000000
     0.500000000     0.800000000     0.900000000
     0.500000000     0.850000000     0.950000000
     0.550000000     0.800000000     0.950000000
     0.550000000     0.850000000     0.900000000
     0.500000000     0.900000000     0.000000000
     0.500000000     0.950000000     0.050000000
     0.550000000     0.900000000     0.050000000
     0.550000000     0.950000000     0.000000000
     0.500000000     0.900000000     0.100000000
     0.550000000     0.900000000     0.150000000
     0.550000000     0.950000000     0.100000000
     0.500000000     0.900000000     0.200000000
     0.500000000     0.950000000     0.250000000
     0.550000000     0.950000000     0.200000000
     0.500000000     0.900000000     0.300000000
     0.500000000     0.950000000     0.350000000
     0.550000000     0.950000000     0.300000000
     0.500000000     0.950000000     0.450000000
     0.550000000     0.900000000     0.450000000
     0.550000000     0.950000000     0.400000000
     0.500000000     0.900000000     0.500000000
     0.500000000     0.950000000     0.550000000
     0.550000000     0.900000000     0.550000000
     0.550000000     0.950000000     0.500000000
     0.500000000     0.900000000     0.600000000
     0.550000000     0.950000000     0.600000000
     0.500000000     0.900000000     0.700000000
     0.500000000     0.950000000     0.750000000
     0.550000000     0.900000000     0.750000000
     0.550000000     0.950000000     0.700000000
     0.500000000     0.900000000     0.900000000
     0.500000000     0.950000000     0.950000000
     0.550000000     0.900000000     0.950000000
     0.600000000     0.000000000     0.000000000
     0.600000000     0.050000000     0.050000000
     0.650000000     0.000000000     0.050000000
     0.650000000     0.050000000     0.000000000
     0.600000000     0.000000000     0.100000000
     0.600000000     0.050000000     0.150000000
     0.650000000     0.000000000     0.150000000
     0.600000000     0.000000000     0.200000000
     0.600000000     0.050000000     0.250000000
     0.650000000     0.000000000     0.250000000
     0.650000000     0.050000000     0.200000000
     0.600000000     0.000000000     0.300000000
     0.650000000     0.000000000     0.350000000
     0.600000000     0.050000000     0.450000000
     0.650000000     0.000000000     0.450000000
     0.650000000     0.050000000     0.400000000
     0.600000000     0.000000000     0.500000000
     0.600000000     0.050000000     0.550000000
     0.650000000     0.050000000     0.500000000
     0.650000000     0.000000000     0.650000000
     0.650000000     0.050000000     0.600000000
     0.600000000     0.000000000     0.700000000
     0.650000000     0.000000000     0.750000000
     0.650000000     0.050000000     0.700000000
     0.600000000     0.050000000     0.850000000
     0.650000000     0.050000000     0.800000000
     0.600000000     0.050000000     0.950000000
     0.650000000     0.050000000     0.900000000
     0.600000000     0.100000000     0.000000000
     0.600000000     0.150000000     0.050000000
     0.650000000     0.100000000     0.050000000
     0.600000000     0.100000000     0.100000000
     0.650000000     0.150000000     0.100000000
     0.600000000     0.150000000     0.250000000
     0.650000000     0.100000000     0.250000000
     0.650000000     0.150000000     0.200000000
     0.600000000     0.100000000     0.300000000
     0.600000000     0.150000000     0.350000000
     0.650000000     0.100000000     0.350000000
     0.650000000     0.150000000     0.300000000
     0.600000000     0.100000000     0.400000000
     0.600000000     0.150000000     0.450000000
     0.650000000     0.100000000     0.450000000
     0.650000000     0.150000000     0.400000000
     0.650000000     0.100000000     0.550000000
     0.650000000     0.150000000     0.500000000
     0.600000000     0.150000000     0.650000000
     0.650000000     0.100000000     0.650000000
     0.650000000     0.150000000     0.600000000
     0.600000000     0.100000000     0.700000000
     0.600000000     0.150000000     0.750000000
     0.650000000     0.100000000     0.750000000
     0.600000000     0.100000000     0.800000000
     0.600000000     0.150000000     0.850000000
     0.650000000     0.100000000     0.850000000
     0.650000000     0.150000000     0.800000000
     0.600000000     0.100000000     0.900000000
     0.600000000     0.150000000     0.950000000
     0.650000000     0.100000000     0.950000000
     0.600000000     0.200000000     0.000000000
     0.600000000     0.250000000     0.050000000
     0.650000000     0.200000000     0.050000000
     0.650000000     0.250000000     0.000000000
     0.600000000     0.200000000     0.100000000
     0.650000000     0.200000000     0.150000000
     0.650000000     0.250000000     0.100000000
     0.600000000     0.200000000     0.200000000
     0.650000000     0.250000000     0.200000000
     0.600000000     0.200000000     0.300000000
     0.600000000     0.250000000     0.350000000
     0.650000000     0.200000000     0.350000000
     0.600000000     0.200000000     0.400000000
     0.600000000     0.250000000     0.450000000
     0.650000000     0.200000000     0.450000000
     0.650000000     0.250000000     0.400000000
     0.650000000     0.250000000     0.500000000
     0.600000000     0.200000000     0.600000000
     0.600000000     0.250000000     0.650000000
     0.650000000     0.200000000     0.650000000
     0.650000000     0.250000000     0.600000000
     0.600000000     0.200000000     0.700000000
     0.600000000     0.250000000     0.750000000
     0.650000000     0.250000000     0.700000000
     0.600000000     0.200000000     0.800000000
     0.600000000     0.250000000     0.850000000
     0.650000000     0.200000000     0.850000000
     0.600000000     0.250000000     0.950000000
     0.650000000     0.200000000     0.950000000
     0.650000000     0.250000000     0.900000000
     0.600000000     0.350000000     0.050000000
     0.650000000     0.300000000     0.050000000
     0.650000000     0.350000000     0.000000000
     0.600000000     0.350000000     0.150000000
     0.600000000     0.300000000     0.200000000
     0.600000000     0.350000000     0.250000000
     0.650000000     0.300000000     0.250000000
     0.650000000     0.350000000     0.200000000
     0.600000000     0.350000000     0.350000000
     0.650000000     0.300000000     0.350000000
     0.600000000     0.300000000     0.400000000
     0.600000000     0.350000000     0.450000000
     0.650000000     0.300000000     0.450000000
     0.650000000     0.350000000     0.400000000
     0.650000000     0.300000000     0.550000000
     0.650000000     0.350000000     0.500000000
     0.600000000     0.300000000     0.600000000
     0.600000000     0.350000000     0.650000000
     0.650000000     0.300000000     0.650000000
     0.650000000     0.350000000     0.600000000
     0.600000000     0.300000000     0.700000000
     0.650000000     0.300000000     0.750000000
     0.600000000     0.300000000     0.800000000
     0.600000000     0.350000000     0.850000000
     0.600000000     0.300000000     0.900000000
     0.600000000     0.350000000     0.950000000
     0.650000000     0.300000000     0.950000000
     0.650000000     0.350000000     0.900000000
     0.600000000     0.400000000     0.000000000
     0.600000000     0.450000000     0.050000000
     0.650000000     0.400000000     0.050000000
     0.650000000     0.450000000     0.000000000
     0.650000000     0.400000000     0.150000000
     0.650000000     0.450000000     0.100000000
     0.600000000     0.400000000     0.200000000
     0.600000000     0.450000000     0.250000000
     0.600000000     0.400000000     0.300000000
     0.650000000     0.450000000     0.300000000
     0.600000000     0.400000000     0.400000000
     0.600000000     0.450000000     0.450000000
     0.650000000     0.400000000     0.450000000
     0.650000000     0.450000000     0.400000000
     0.600000000     0.400000000     0.500000000
     0.600000000     0.450000000     0.550000000
     0.650000000     0.400000000     0.550000000
     0.650000000     0.450000000     0.500000000
     0.600000000     0.400000000     0.600000000
     0.650000000     0.450000000     0.600000000
     0.600000000     0.400000000     0.700000000
     0.650000000     0.400000000     0.750000000
     0.650000000     0.450000000     0.700000000
     0.600000000     0.450000000     0.850000000
     0.650000000     0.400000000     0.850000000
     0.650000000     0.450000000     0.800000000
     0.600000000     0.400000000     0.900000000
     0.600000000     0.450000000     0.950000000
     0.650000000     0.450000000     0.900000000
     0.600000000     0.550000000     0.050000000
     0.650000000     0.500000000     0.050000000
     0.650000000     0.500000000     0.150000000
     0.650000000     0.550000000     0.200000000
     0.600000000     0.500000000     0.300000000
     0.600000000     0.550000000     0.350000000
     0.650000000     0.500000000     0.350000000
     0.600000000     0.500000000     0.400000000
     0.600000000     0.550000000     0.450000000
     0.650000000     0.550000000     0.400000000
     0.600000000     0.500000000     0.500000000
     0.600000000     0.550000000     0.550000000
     0.650000000     0.550000000     0.500000000
     0.600000000     0.500000000     0.600000000
     0.600000000     0.550000000     0.650000000
     0.650000000     0.500000000     0.650000000
     0.650000000     0.550000000     0.600000000
     0.600000000     0.500000000     0.700000000
     0.650000000     0.500000000     0.750000000
     0.650000000     0.550000000     0.700000000
     0.600000000     0.550000000     0.850000000
     0.650000000     0.550000000     0.800000000
     0.600000000     0.550000000     0.950000000
     0.650000000     0.500000000     0.950000000
     0.650000000     0.550000000     0.900000000
     0.600000000     0.650000000     0.050000000
     0.650000000     0.600000000     0.050000000
     0.650000000     0.650000000     0.000000000
     0.600000000     0.600000000     0.100000000
     0.650000000     0.600000000     0.150000000
     0.600000000     0.600000000     0.200000000
     0.650000000     0.600000000     0.250000000
     0.650000000     0.650000000     0.200000000
     0.650000000     0.600000000     0.350000000
     0.650000000     0.650000000     0.300000000
     0.600000000     0.650000000     0.450000000
     0.650000000     0.650000000     0.400000000
     0.650000000     0.600000000     0.550000000
     0.650000000     0.650000000     0.500000000
     0.600000000     0.600000000     0.600000000
     0.600000000     0.650000000     0.650000000
     0.650000000     0.650000000     0.600000000
     0.600000000     0.600000000     0.700000000
     0.600000000     0.650000000     0.750000000
     0.650000000     0.600000000     0.750000000
     0.650000000     0.650000000     0.700000000
     0.600000000     0.650000000     0.850000000
     0.650000000     0.600000000     0.850000000
     0.600000000     0.650000000     0.950000000
     0.650000000     0.600000000     0.950000000
     0.600000000     0.700000000     0.000000000
     0.600000000     0.750000000     0.050000000
     0.650000000     0.700000000     0.050000000
     0.650000000     0.750000000     0.000000000
     0.600000000     0.700000000     0.100000000
     0.650000000     0.700000000     0.150000000
     0.650000000     0.750000000     0.100000000
     0.600000000     0.700000000     0.200000000
     0.600000000     0.750000000     0.250000000
     0.650000000     0.700000000     0.250000000
     0.650000000     0.750000000     0.200000000
     0.600000000     0.700000000     0.300000000
     0.600000000     0.700000000     0.400000000
     0.650000000     0.750000000     0.400000000
     0.600000000     0.750000000     0.550000000
     0.650000000     0.700000000     0.550000000
     0.650000000     0.750000000     0.500000000
     0.600000000     0.750000000     0.650000000
     0.650000000     0.700000000     0.650000000
     0.600000000     0.700000000     0.700000000
     0.600000000     0.750000000     0.750000000
     0.650000000     0.750000000     0.700000000
     0.600000000     0.700000000     0.800000000
     0.650000000     0.700000000     0.850000000
     0.650000000     0.750000000     0.800000000
     0.600000000     0.700000000     0.900000000
     0.600000000     0.750000000     0.950000000
     0.650000000     0.700000000     0.950000000
     0.600000000     0.800000000     0.000000000
     0.600000000     0.800000000     0.100000000
     0.600000000     0.850000000     0.150000000
     0.650000000     0.800000000     0.150000000
     0.650000000     0.850000000     0.100000000
     0.600000000     0.800000000     0.200000000
     0.650000000     0.800000000     0.250000000
     0.650000000     0.850000000     0.200000000
     0.600000000     0.800000000     0.300000000
     0.600000000     0.850000000     0.350000000
     0.650000000     0.800000000     0.350000000
     0.600000000     0.800000000     0.400000000
     0.600000000     0.850000000     0.450000000
     0.650000000     0.800000000     0.450000000
     0.650000000     0.850000000     0.400000000
     0.600000000     0.800000000     0.500000000
     0.600000000     0.850000000     0.550000000
     0.650000000     0.800000000     0.550000000
     0.650000000     0.850000000     0.500000000
     0.600000000     0.800000000     0.600000000
     0.600000000     0.850000000     0.650000000
     0.650000000     0.800000000     0.650000000
     0.650000000     0.850000000     0.600000000
     0.600000000     0.800000000     0.700000000
     0.600000000     0.850000000     0.750000000
     0.650000000     0.800000000     0.750000000
     0.650000000     0.850000000     0.700000000
     0.600000000     0.800000000     0.800000000
     0.600000000     0.850000000     0.850000000
     0.650000000     0.800000000     0.850000000
     0.650000000     0.850000000     0.800000000
     0.600000000     0.800000000     0.900000000
     0.600000000     0.850000000     0.950000000
     0.650000000     0.800000000     0.950000000
     0.650000000     0.850000000     0.900000000
     0.600000000     0.900000000     0.000000000
     0.600000000     0.950000000     0.050000000
     0.600000000     0.900000000     0.100000000
     0.600000000     0.900000000     0.200000000
     0.600000000     0.950000000     0.250000000
     0.650000000     0.900000000     0.250000000
     0.650000000     0.950000000     0.200000000
     0.600000000     0.900000000     0.300000000
     0.600000000     0.950000000     0.350000000
     0.650000000     0.900000000     0.350000000
     0.650000000     0.950000000     0.300000000
     0.600000000     0.900000000     0.400000000
     0.600000000     0.950000000     0.450000000
     0.650000000     0.900000000     0.450000000
     0.650000000     0.950000000     0.400000000
     0.600000000     0.900000000     0.500000000
     0.600000000     0.950000000     0.550000000
     0.650000000     0.900000000     0.550000000
     0.650000000     0.950000000     0.500000000
     0.600000000     0.900000000     0.600000000
     0.650000000     0.950000000     0.600000000
     0.600000000     0.900000000     0.700000000
     0.600000000     0.950000000     0.750000000
     0.650000000     0.900000000     0.750000000
     0.650000000     0.900000000     0.850000000
     0.650000000     0.950000000     0.800000000
     0.600000000     0.900000000     0.900000000
     0.600000000     0.950000000     0.950000000
     0.650000000     0.950000000     0.900000000
     0.700000000     0.000000000     0.000000000
     0.700000000     0.050000000     0.050000000
     0.750000000     0.050000000     0.000000000
     0.700000000     0.000000000     0.100000000
     0.700000000     0.050000000     0.150000000
     0.750000000     0.050000000     0.100000000
     0.700000000     0.000000000     0.200000000
     0.700000000     0.050000000     0.250000000
     0.750000000     0.000000000     0.250000000
     0.750000000     0.050000000     0.200000000
     0.700000000     0.000000000     0.300000000
     0.750000000     0.050000000     0.300000000
     0.700000000     0.000000000     0.400000000
     0.700000000     0.050000000     0.450000000
     0.750000000     0.000000000     0.450000000
     0.750000000     0.050000000     0.400000000
     0.700000000     0.000000000     0.500000000
     0.700000000     0.050000000     0.550000000
     0.750000000     0.000000000     0.550000000
     0.750000000     0.050000000     0.500000000
     0.700000000     0.000000000     0.600000000
     0.700000000     0.050000000     0.650000000
     0.750000000     0.000000000     0.650000000
     0.750000000     0.050000000     0.600000000
     0.700000000     0.000000000     0.700000000
     0.750000000     0.000000000     0.750000000
     0.750000000     0.050000000     0.700000000
     0.700000000     0.000000000     0.800000000
     0.700000000     0.050000000     0.850000000
     0.750000000     0.050000000     0.800000000
     0.700000000     0.000000000     0.900000000
     0.700000000     0.050000000     0.950000000
     0.750000000     0.050000000     0.900000000
     0.700000000     0.100000000     0.000000000
     0.700000000     0.150000000     0.050000000
     0.750000000     0.100000000     0.050000000
     0.750000000     0.150000000     0.000000000
     0.700000000     0.100000000     0.100000000
     0.750000000     0.100000000     0.150000000
     0.750000000     0.150000000     0.100000000
     0.700000000     0.150000000     0.250000000
     0.750000000     0.100000000     0.250000000
     0.750000000     0.150000000     0.200000000
     0.700000000     0.100000000     0.300000000
     0.700000000     0.150000000     0.350000000
     0.750000000     0.100000000     0.350000000
     0.750000000     0.150000000     0.300000000
     0.700000000     0.100000000     0.400000000
     0.750000000     0.100000000     0.450000000
     0.750000000     0.150000000     0.400000000
     0.700000000     0.100000000     0.500000000
     0.750000000     0.100000000     0.550000000
     0.700000000     0.150000000     0.650000000
     0.750000000     0.100000000     0.650000000
     0.750000000     0.150000000     0.600000000
     0.700000000     0.100000000     0.700000000
     0.700000000     0.150000000     0.750000000
     0.750000000     0.100000000     0.750000000
     0.750000000     0.150000000     0.700000000
     0.700000000     0.150000000     0.850000000
     0.750000000     0.150000000     0.800000000
     0.700000000     0.100000000     0.900000000
     0.700000000     0.150000000     0.950000000
     0.750000000     0.100000000     0.950000000
     0.750000000     0.150000000     0.900000000
     0.700000000     0.250000000     0.050000000
     0.750000000     0.200000000     0.050000000
     0.750000000     0.250000000     0.000000000
     0.700000000     0.250000000     0.150000000
     0.750000000     0.200000000     0.150000000
     0.750000000     0.250000000     0.100000000
     0.750000000     0.200000000     0.250000000
     0.750000000     0.250000000     0.200000000
     0.700000000     0.200000000     0.300000000
     0.750000000     0.250000000     0.300000000
     0.700000000     0.200000000     0.400000000
     0.700000000     0.250000000     0.450000000
     0.750000000     0.200000000     0.450000000
     0.750000000     0.250000000     0.400000000
     0.700000000     0.200000000     0.500000000
     0.700000000     0.250000000     0.550000000
     0.750000000     0.250000000     0.500000000
     0.700000000     0.200000000     0.600000000
     0.700000000     0.250000000     0.650000000
     0.750000000     0.200000000     0.650000000
     0.750000000     0.250000000     0.600000000
     0.700000000     0.250000000     0.750000000
     0.750000000     0.200000000     0.750000000
     0.750000000     0.250000000     0.700000000
     0.700000000     0.250000000     0.850000000
     0.750000000     0.250000000     0.800000000
     0.700000000     0.250000000     0.950000000
     0.750000000     0.200000000     0.950000000
     0.700000000     0.350000000     0.050000000
     0.750000000     0.300000000     0.050000000
     0.750000000     0.350000000     0.000000000
     0.700000000     0.300000000     0.100000000
     0.700000000     0.350000000     0.150000000
     0.750000000     0.300000000     0.150000000
     0.700000000     0.300000000     0.200000000
     0.700000000     0.350000000     0.250000000
     0.750000000     0.300000000     0.250000000
     0.700000000     0.300000000     0.300000000
     0.700000000     0.350000000     0.350000000
     0.750000000     0.300000000     0.350000000
     0.700000000     0.300000000     0.400000000
     0.700000000     0.350000000     0.450000000
     0.750000000     0.350000000     0.400000000
     0.700000000     0.300000000     0.500000000
     0.750000000     0.350000000     0.500000000
     0.700000000     0.300000000     0.600000000
     0.700000000     0.350000000     0.750000000
     0.750000000     0.300000000     0.750000000
     0.750000000     0.350000000     0.700000000
     0.700000000     0.300000000     0.800000000
     0.700000000     0.350000000     0.850000000
     0.750000000     0.300000000     0.850000000
     0.750000000     0.350000000     0.900000000
     0.700000000     0.400000000     0.000000000
     0.700000000     0.450000000     0.050000000
     0.750000000     0.400000000     0.050000000
     0.750000000     0.450000000     0.000000000
     0.700000000     0.400000000     0.100000000
     0.750000000     0.400000000     0.150000000
     0.750000000     0.450000000     0.100000000
     0.700000000     0.400000000     0.200000000
     0.700000000     0.450000000     0.250000000
     0.750000000     0.400000000     0.250000000
     0.700000000     0.400000000     0.300000000
     0.700000000     0.450000000     0.350000000
     0.750000000     0.400000000     0.350000000
     0.750000000     0.450000000     0.300000000
     0.700000000     0.450000000     0.450000000
     0.750000000     0.400000000     0.450000000
     0.750000000     0.450000000     0.400000000
     0.700000000     0.400000000     0.500000000
     0.750000000     0.400000000     0.550000000
     0.700000000     0.400000000     0.600000000
     0.700000000     0.450000000     0.650000000
     0.750000000     0.450000000     0.600000000
     0.700000000     0.400000000     0.700000000
     0.750000000     0.400000000     0.750000000
     0.700000000     0.400000000     0.800000000
     0.700000000     0.450000000     0.850000000
     0.700000000     0.450000000     0.950000000
     0.750000000     0.400000000     0.950000000
     0.750000000     0.450000000     0.900000000
     0.700000000     0.550000000     0.050000000
     0.750000000     0.500000000     0.050000000
     0.750000000     0.550000000     0.000000000
     0.750000000     0.500000000     0.150000000
     0.750000000     0.550000000     0.100000000
     0.700000000     0.500000000     0.200000000
     0.700000000     0.550000000     0.250000000
     0.700000000     0.500000000     0.300000000
     0.700000000     0.550000000     0.350000000
     0.750000000     0.500000000     0.350000000
     0.750000000     0.550000000     0.300000000
     0.700000000     0.500000000     0.400000000
     0.700000000     0.550000000     0.450000000
     0.750000000     0.500000000     0.450000000
     0.700000000     0.500000000     0.600000000
     0.750000000     0.500000000     0.650000000
     0.750000000     0.550000000     0.600000000
     0.750000000     0.500000000     0.750000000
     0.750000000     0.550000000     0.700000000
     0.700000000     0.500000000     0.800000000
     0.750000000     0.500000000     0.850000000
     0.700000000     0.550000000     0.950000000
     0.750000000     0.500000000     0.950000000
     0.700000000     0.600000000     0.000000000
     0.700000000     0.650000000     0.050000000
     0.750000000     0.650000000     0.000000000
     0.700000000     0.600000000     0.100000000
     0.750000000     0.600000000     0.150000000
     0.750000000     0.650000000     0.100000000
     0.700000000     0.600000000     0.200000000
     0.700000000     0.650000000     0.250000000
     0.750000000     0.600000000     0.250000000
     0.750000000     0.650000000     0.200000000
     0.700000000     0.600000000     0.300000000
     0.700000000     0.650000000     0.350000000
     0.750000000     0.600000000     0.350000000
     0.750000000     0.650000000     0.300000000
     0.700000000     0.600000000     0.400000000
     0.700000000     0.600000000     0.500000000
     0.700000000     0.650000000     0.550000000
     0.750000000     0.600000000     0.550000000
     0.750000000     0.650000000     0.500000000
     0.700000000     0.650000000     0.650000000
     0.750000000     0.650000000     0.600000000
     0.750000000     0.600000000     0.750000000
     0.750000000     0.650000000     0.700000000
     0.700000000     0.600000000     0.800000000
     0.750000000     0.600000000     0.850000000
     0.750000000     0.650000000     0.800000000
     0.700000000     0.600000000     0.900000000
     0.700000000     0.650000000     0.950000000
     0.750000000     0.600000000     0.950000000
     0.750000000     0.650000000     0.900000000
     0.700000000     0.700000000     0.000000000
     0.700000000     0.750000000     0.050000000
     0.750000000     0.700000000     0.050000000
     0.750000000     0.750000000     0.000000000
     0.700000000     0.700000000     0.100000000
     0.700000000     0.750000000     0.150000000
     0.700000000     0.750000000     0.250000000
     0.750000000     0.700000000     0.250000000
     0.750000000     0.750000000     0.200000000
     0.700000000     0.750000000     0.350000000
     0.750000000     0.700000000     0.350000000
     0.750000000     0.750000000     0.300000000
     0.700000000     0.750000000     0.450000000
     0.750000000     0.700000000     0.450000000
     0.750000000     0.750000000     0.400000000
     0.700000000     0.700000000     0.500000000
     0.700000000     0.750000000     0.550000000
     0.750000000     0.700000000     0.550000000
     0.750000000     0.750000000     0.500000000
     0.700000000     0.750000000     0.650000000
     0.750000000     0.750000000     0.600000000
     0.700000000     0.700000000     0.700000000
     0.700000000     0.750000000     0.750000000
     0.750000000     0.700000000     0.750000000
     0.750000000     0.750000000     0.700000000
     0.700000000     0.700000000     0.800000000
     0.700000000     0.750000000     0.850000000
     0.750000000     0.750000000     0.800000000
     0.700000000     0.700000000     0.900000000
     0.700000000     0.750000000     0.950000000
     0.750000000     0.700000000     0.950000000
     0.750000000     0.750000000     0.900000000
     0.700000000     0.800000000     0.000000000
     0.750000000     0.800000000     0.050000000
     0.700000000     0.800000000     0.100000000
     0.700000000     0.850000000     0.150000000
     0.700000000     0.850000000     0.250000000
     0.750000000     0.800000000     0.250000000
     0.750000000     0.850000000     0.200000000
     0.700000000     0.800000000     0.300000000
     0.700000000     0.850000000     0.350000000
     0.750000000     0.850000000     0.300000000
     0.700000000     0.850000000     0.450000000
     0.750000000     0.800000000     0.450000000
     0.750000000     0.850000000     0.400000000
     0.750000000     0.800000000     0.550000000
     0.750000000     0.850000000     0.500000000
     0.700000000     0.850000000     0.650000000
     0.750000000     0.850000000     0.600000000
     0.700000000     0.850000000     0.750000000
     0.750000000     0.800000000     0.750000000
     0.750000000     0.850000000     0.700000000
     0.750000000     0.800000000     0.850000000
     0.700000000     0.800000000     0.900000000
     0.750000000     0.850000000     0.900000000
     0.700000000     0.900000000     0.000000000
     0.750000000     0.900000000     0.050000000
     0.700000000     0.900000000     0.100000000
     0.700000000     0.950000000     0.150000000
     0.750000000     0.950000000     0.100000000
     0.700000000     0.900000000     0.200000000
     0.700000000     0.950000000     0.250000000
     0.750000000     0.950000000     0.200000000
     0.700000000     0.900000000     0.300000000
     0.700000000     0.950000000     0.350000000
     0.750000000     0.900000000     0.350000000
     0.750000000     0.950000000     0.300000000
     0.700000000     0.900000000     0.400000000
     0.700000000     0.900000000     0.500000000
     0.700000000     0.950000000     0.550000000
     0.750000000     0.900000000     0.550000000
     0.750000000     0.950000000     0.500000000
     0.750000000     0.900000000     0.650000000
     0.750000000     0.950000000     0.600000000
     0.700000000     0.950000000     0.750000000
     0.750000000     0.900000000     0.750000000
     0.750000000     0.950000000     0.700000000
     0.700000000     0.950000000     0.850000000
     0.750000000     0.950000000     0.800000000
     0.700000000     0.900000000     0.900000000
     0.700000000     0.950000000     0.950000000
     0.750000000     0.950000000     0.900000000
     0.800000000     0.000000000     0.000000000
     0.800000000     0.050000000     0.050000000
     0.850000000     0.000000000     0.050000000
     0.850000000     0.050000000     0.000000000
     0.800000000     0.000000000     0.100000000
     0.800000000     0.000000000     0.200000000
     0.800000000     0.050000000     0.250000000
     0.850000000     0.000000000     0.250000000
     0.800000000     0.000000000     0.300000000
     0.800000000     0.050000000     0.350000000
     0.850000000     0.000000000     0.350000000
     0.850000000     0.050000000     0.300000000
     0.800000000     0.000000000     0.400000000
     0.850000000     0.000000000     0.450000000
     0.800000000     0.000000000     0.500000000
     0.800000000     0.050000000     0.550000000
     0.850000000     0.000000000     0.550000000
     0.850000000     0.050000000     0.500000000
     0.800000000     0.000000000     0.600000000
     0.800000000     0.050000000     0.650000000
     0.850000000     0.000000000     0.650000000
     0.850000000     0.050000000     0.600000000
     0.800000000     0.000000000     0.700000000
     0.800000000     0.050000000     0.750000000
     0.850000000     0.000000000     0.750000000
     0.850000000     0.050000000     0.700000000
     0.800000000     0.050000000     0.850000000
     0.850000000     0.000000000     0.850000000
     0.850000000     0.050000000     0.800000000
     0.800000000     0.050000000     0.950000000
     0.850000000     0.000000000     0.950000000
     0.850000000     0.050000000     0.900000000
     0.800000000     0.100000000     0.000000000
     0.800000000     0.150000000     0.050000000
     0.850000000     0.100000000     0.050000000
     0.800000000     0.100000000     0.100000000
     0.800000000     0.150000000     0.150000000
     0.850000000     0.100000000     0.150000000
     0.800000000     0.100000000     0.200000000
     0.800000000     0.150000000     0.250000000
     0.850000000     0.100000000     0.250000000
     0.850000000     0.150000000     0.200000000
     0.800000000     0.100000000     0.300000000
     0.800000000     0.150000000     0.350000000
     0.850000000     0.100000000     0.350000000
     0.800000000     0.150000000     0.450000000
     0.850000000     0.100000000     0.450000000
     0.800000000     0.100000000     0.500000000
     0.800000000     0.150000000     0.550000000
     0.850000000     0.100000000     0.550000000
     0.850000000     0.150000000     0.500000000
     0.800000000     0.100000000     0.600000000
     0.800000000     0.150000000     0.650000000
     0.850000000     0.100000000     0.650000000
     0.800000000     0.100000000     0.700000000
     0.850000000     0.100000000     0.750000000
     0.800000000     0.150000000     0.850000000
     0.850000000     0.100000000     0.850000000
     0.800000000     0.100000000     0.900000000
     0.800000000     0.150000000     0.950000000
     0.800000000     0.250000000     0.050000000
     0.850000000     0.200000000     0.050000000
     0.850000000     0.250000000     0.000000000
     0.800000000     0.200000000     0.100000000
     0.850000000     0.200000000     0.150000000
     0.850000000     0.250000000     0.100000000
     0.800000000     0.200000000     0.200000000
     0.800000000     0.250000000     0.250000000
     0.850000000     0.200000000     0.250000000
     0.800000000     0.200000000     0.300000000
     0.800000000     0.250000000     0.350000000
     0.850000000     0.200000000     0.350000000
     0.850000000     0.250000000     0.300000000
     0.800000000     0.200000000     0.400000000
     0.800000000     0.250000000     0.450000000
     0.850000000     0.200000000     0.450000000
     0.800000000     0.200000000     0.500000000
     0.800000000     0.250000000     0.550000000
     0.850000000     0.200000000     0.550000000
     0.850000000     0.250000000     0.500000000
     0.800000000     0.200000000     0.600000000
     0.800000000     0.250000000     0.650000000
     0.850000000     0.250000000     0.600000000
     0.800000000     0.200000000     0.700000000
     0.800000000     0.250000000     0.750000000
     0.800000000     0.200000000     0.800000000
     0.800000000     0.250000000     0.850000000
     0.850000000     0.200000000     0.850000000
     0.850000000     0.250000000     0.800000000
     0.800000000     0.200000000     0.900000000
     0.800000000     0.250000000     0.950000000
     0.850000000     0.250000000     0.900000000
     0.800000000     0.350000000     0.050000000
     0.850000000     0.300000000     0.050000000
     0.850000000     0.350000000     0.000000000
     0.800000000     0.300000000     0.100000000
     0.850000000     0.300000000     0.150000000
     0.800000000     0.300000000     0.200000000
     0.800000000     0.350000000     0.250000000
     0.850000000     0.300000000     0.250000000
     0.850000000     0.350000000     0.200000000
     0.800000000     0.300000000     0.300000000
     0.850000000     0.300000000     0.350000000
     0.800000000     0.300000000     0.400000000
     0.800000000     0.350000000     0.450000000
     0.850000000     0.300000000     0.450000000
     0.850000000     0.350000000     0.400000000
     0.800000000     0.300000000     0.500000000
     0.800000000     0.350000000     0.550000000
     0.850000000     0.300000000     0.550000000
     0.850000000     0.350000000     0.500000000
     0.800000000     0.300000000     0.600000000
     0.850000000     0.300000000     0.650000000
     0.850000000     0.350000000     0.600000000
     0.800000000     0.350000000     0.750000000
     0.850000000     0.300000000     0.750000000
     0.850000000     0.350000000     0.700000000
     0.800000000     0.350000000     0.850000000
     0.850000000     0.350000000     0.800000000
     0.800000000     0.350000000     0.950000000
     0.850000000     0.300000000     0.950000000
     0.850000000     0.350000000     0.900000000
     0.800000000     0.400000000     0.000000000
     0.800000000     0.450000000     0.050000000
     0.850000000     0.400000000     0.050000000
     0.850000000     0.450000000     0.000000000
     0.800000000     0.400000000     0.100000000
     0.800000000     0.450000000     0.150000000
     0.850000000     0.400000000     0.150000000
     0.850000000     0.450000000     0.100000000
     0.800000000     0.400000000     0.200000000
     0.850000000     0.400000000     0.250000000
     0.850000000     0.450000000     0.200000000
     0.800000000     0.400000000     0.300000000
     0.800000000     0.450000000     0.350000000
     0.850000000     0.450000000     0.300000000
     0.800000000     0.400000000     0.400000000
     0.800000000     0.450000000     0.450000000
     0.850000000     0.450000000     0.400000000
     0.800000000     0.400000000     0.500000000
     0.800000000     0.450000000     0.550000000
     0.850000000     0.400000000     0.550000000
     0.850000000     0.450000000     0.500000000
     0.850000000     0.400000000     0.650000000
     0.850000000     0.450000000     0.600000000
     0.800000000     0.400000000     0.700000000
     0.850000000     0.450000000     0.700000000
     0.800000000     0.400000000     0.800000000
     0.800000000     0.450000000     0.850000000
     0.850000000     0.400000000     0.850000000
     0.800000000     0.400000000     0.900000000
     0.800000000     0.450000000     0.950000000
     0.850000000     0.400000000     0.950000000
     0.800000000     0.500000000     0.000000000
     0.800000000     0.550000000     0.050000000
     0.850000000     0.500000000     0.050000000
     0.800000000     0.500000000     0.100000000
     0.800000000     0.550000000     0.150000000
     0.850000000     0.500000000     0.150000000
     0.850000000     0.550000000     0.100000000
     0.800000000     0.550000000     0.250000000
     0.800000000     0.500000000     0.300000000
     0.800000000     0.550000000     0.350000000
     0.850000000     0.500000000     0.350000000
     0.850000000     0.550000000     0.300000000
     0.800000000     0.550000000     0.450000000
     0.850000000     0.500000000     0.450000000
     0.800000000     0.500000000     0.500000000
     0.800000000     0.550000000     0.550000000
     0.850000000     0.500000000     0.550000000
     0.850000000     0.550000000     0.500000000
     0.800000000     0.500000000     0.600000000
     0.800000000     0.550000000     0.650000000
     0.850000000     0.500000000     0.650000000
     0.800000000     0.500000000     0.700000000
     0.800000000     0.550000000     0.750000000
     0.850000000     0.500000000     0.750000000
     0.800000000     0.500000000     0.800000000
     0.850000000     0.500000000     0.850000000
     0.850000000     0.550000000     0.800000000
     0.800000000     0.500000000     0.900000000
     0.800000000     0.550000000     0.950000000
     0.850000000     0.500000000     0.950000000
     0.850000000     0.550000000     0.900000000
     0.800000000     0.600000000     0.000000000
     0.850000000     0.600000000     0.050000000
     0.850000000     0.650000000     0.000000000
     0.800000000     0.600000000     0.100000000
     0.800000000     0.650000000     0.150000000
     0.850000000     0.600000000     0.150000000
     0.850000000     0.650000000     0.100000000
     0.850000000     0.650000000     0.200000000
     0.800000000     0.650000000     0.350000000
     0.850000000     0.600000000     0.350000000
     0.850000000     0.650000000     0.300000000
     0.800000000     0.600000000     0.400000000
     0.800000000     0.650000000     0.450000000
     0.850000000     0.650000000     0.400000000
     0.800000000     0.600000000     0.500000000
     0.800000000     0.650000000     0.550000000
     0.850000000     0.600000000     0.550000000
     0.800000000     0.600000000     0.600000000
     0.850000000     0.600000000     0.650000000
     0.850000000     0.650000000     0.600000000
     0.800000000     0.600000000     0.700000000
     0.850000000     0.600000000     0.750000000
     0.850000000     0.650000000     0.700000000
     0.800000000     0.600000000     0.800000000
     0.850000000     0.650000000     0.800000000
     0.850000000     0.650000000     0.900000000
     0.800000000     0.700000000     0.000000000
     0.800000000     0.750000000     0.050000000
     0.850000000     0.700000000     0.050000000
     0.850000000     0.750000000     0.000000000
     0.800000000     0.700000000     0.100000000
     0.800000000     0.750000000     0.150000000
     0.850000000     0.700000000     0.150000000
     0.850000000     0.750000000     0.100000000
     0.800000000     0.700000000     0.200000000
     0.800000000     0.750000000     0.250000000
     0.850000000     0.750000000     0.200000000
     0.800000000     0.700000000     0.300000000
     0.800000000     0.750000000     0.350000000
     0.850000000     0.750000000     0.300000000
     0.800000000     0.700000000     0.400000000
     0.800000000     0.750000000     0.450000000
     0.850000000     0.700000000     0.450000000
     0.850000000     0.750000000     0.400000000
     0.800000000     0.700000000     0.500000000
     0.800000000     0.750000000     0.550000000
     0.850000000     0.700000000     0.550000000
     0.850000000     0.750000000     0.500000000
     0.800000000     0.700000000     0.600000000
     0.800000000     0.750000000     0.650000000
     0.850000000     0.700000000     0.650000000
     0.850000000     0.750000000     0.600000000
     0.800000000     0.700000000     0.700000000
     0.800000000     0.750000000     0.750000000
     0.850000000     0.750000000     0.700000000
     0.800000000     0.700000000     0.800000000
     0.800000000     0.750000000     0.850000000
     0.850000000     0.700000000     0.850000000
     0.850000000     0.750000000     0.800000000
     0.800000000     0.700000000     0.900000000
     0.850000000     0.700000000     0.950000000
     0.800000000     0.800000000     0.000000000
     0.850000000     0.800000000     0.050000000
     0.850000000     0.850000000     0.000000000
     0.800000000     0.800000000     0.100000000
     0.800000000     0.850000000     0.150000000
     0.850000000     0.800000000     0.150000000
     0.850000000     0.850000000     0.100000000
     0.850000000     0.800000000     0.250000000
     0.850000000     0.850000000     0.200000000
     0.800000000     0.800000000     0.300000000
     0.800000000     0.850000000     0.350000000
     0.850000000     0.800000000     0.350000000
     0.850000000     0.850000000     0.300000000
     0.850000000     0.850000000     0.400000000
     0.800000000     0.800000000     0.500000000
     0.800000000     0.850000000     0.550000000
     0.850000000     0.800000000     0.550000000
     0.850000000     0.850000000     0.500000000
     0.800000000     0.800000000     0.600000000
     0.800000000     0.850000000     0.650000000
     0.850000000     0.850000000     0.600000000
     0.800000000     0.800000000     0.700000000
     0.800000000     0.850000000     0.750000000
     0.800000000     0.800000000     0.800000000
     0.850000000     0.850000000     0.800000000
     0.800000000     0.800000000     0.900000000
     0.800000000     0.850000000     0.950000000
     0.850000000     0.850000000     0.900000000
     0.800000000     0.900000000     0.000000000
     0.800000000     0.950000000     0.050000000
     0.850000000     0.900000000     0.050000000
     0.800000000     0.900000000     0.100000000
     0.850000000     0.900000000     0.150000000
     0.850000000     0.950000000     0.100000000
     0.800000000     0.900000000     0.200000000
     0.800000000     0.950000000     0.250000000
     0.850000000     0.950000000     0.200000000
     0.800000000     0.900000000     0.300000000
     0.800000000     0.950000000     0.350000000
     0.850000000     0.950000000     0.300000000
     0.800000000     0.900000000     0.400000000
     0.850000000     0.900000000     0.450000000
     0.850000000     0.950000000     0.400000000
     0.800000000     0.900000000     0.600000000
     0.800000000     0.950000000     0.650000000
     0.850000000     0.950000000     0.600000000
     0.800000000     0.900000000     0.700000000
     0.850000000     0.900000000     0.750000000
     0.850000000     0.950000000     0.700000000
     0.800000000     0.900000000     0.800000000
     0.800000000     0.950000000     0.850000000
     0.850000000     0.900000000     0.850000000
     0.850000000     0.950000000     0.800000000
     0.800000000     0.900000000     0.900000000
     0.800000000     0.950000000     0.950000000
     0.850000000     0.900000000     0.950000000
     0.850000000     0.950000000     0.900000000
     0.900000000     0.000000000     0.000000000
     0.900000000     0.050000000     0.050000000
     0.950000000     0.000000000     0.050000000
     0.950000000     0.050000000     0.000000000
     0.900000000     0.050000000     0.150000000
     0.950000000     0.050000000     0.100000000
     0.900000000     0.000000000     0.200000000
     0.900000000     0.050000000     0.250000000
     0.950000000     0.000000000     0.250000000
     0.900000000     0.050000000     0.350000000
     0.900000000     0.050000000     0.450000000
     0.950000000     0.000000000     0.450000000
     0.900000000     0.000000000     0.500000000
     0.950000000     0.000000000     0.550000000
     0.950000000     0.050000000     0.500000000
     0.900000000     0.000000000     0.600000000
     0.950000000     0.000000000     0.650000000
     0.950000000     0.050000000     0.600000000
     0.900000000     0.000000000     0.700000000
     0.950000000     0.000000000     0.750000000
     0.950000000     0.050000000     0.700000000
     0.900000000     0.000000000     0.800000000
     0.950000000     0.000000000     0.850000000
     0.950000000     0.050000000     0.800000000
     0.900000000     0.000000000     0.900000000
     0.900000000     0.050000000     0.950000000
     0.950000000     0.000000000     0.950000000
     0.950000000     0.050000000     0.900000000
     0.900000000     0.100000000     0.000000000
     0.900000000     0.150000000     0.050000000
     0.950000000     0.100000000     0.050000000
     0.950000000     0.150000000     0.000000000
     0.900000000     0.100000000     0.100000000
     0.900000000     0.150000000     0.150000000
     0.950000000     0.100000000     0.150000000
     0.900000000     0.100000000     0.200000000
     0.950000000     0.100000000     0.250000000
     0.950000000     0.150000000     0.200000000
     0.900000000     0.100000000     0.300000000
     0.900000000     0.150000000     0.350000000
     0.950000000     0.100000000     0.350000000
     0.950000000     0.150000000     0.300000000
     0.900000000     0.100000000     0.400000000
     0.900000000     0.150000000     0.450000000
     0.950000000     0.150000000     0.400000000
     0.900000000     0.100000000     0.500000000
     0.900000000     0.100000000     0.600000000
     0.900000000     0.150000000     0.650000000
     0.900000000     0.100000000     0.700000000
     0.900000000     0.150000000     0.750000000
     0.950000000     0.150000000     0.700000000
     0.900000000     0.150000000     0.850000000
     0.950000000     0.100000000     0.850000000
     0.900000000     0.100000000     0.900000000
     0.900000000     0.150000000     0.950000000
     0.950000000     0.100000000     0.950000000
     0.950000000     0.150000000     0.900000000
     0.950000000     0.200000000     0.050000000
     0.950000000     0.250000000     0.000000000
     0.900000000     0.250000000     0.150000000
     0.950000000     0.200000000     0.150000000
     0.900000000     0.200000000     0.200000000
     0.900000000     0.250000000     0.250000000
     0.950000000     0.200000000     0.250000000
     0.900000000     0.200000000     0.300000000
     0.900000000     0.250000000     0.350000000
     0.950000000     0.200000000     0.350000000
     0.950000000     0.250000000     0.300000000
     0.900000000     0.200000000     0.400000000
     0.900000000     0.250000000     0.450000000
     0.950000000     0.200000000     0.450000000
     0.950000000     0.250000000     0.400000000
     0.900000000     0.200000000     0.500000000
     0.900000000     0.250000000     0.550000000
     0.950000000     0.200000000     0.550000000
     0.950000000     0.250000000     0.500000000
     0.950000000     0.200000000     0.650000000
     0.900000000     0.200000000     0.700000000
     0.900000000     0.250000000     0.750000000
     0.900000000     0.200000000     0.800000000
     0.900000000     0.200000000     0.900000000
     0.950000000     0.200000000     0.950000000
     0.900000000     0.300000000     0.000000000
     0.900000000     0.350000000     0.050000000
     0.950000000     0.300000000     0.050000000
     0.950000000     0.350000000     0.000000000
     0.900000000     0.350000000     0.150000000
     0.950000000     0.300000000     0.150000000
     0.950000000     0.350000000     0.100000000
     0.950000000     0.350000000     0.200000000
     0.900000000     0.300000000     0.300000000
     0.900000000     0.300000000     0.400000000
     0.900000000     0.350000000     0.450000000
     0.950000000     0.300000000     0.450000000
     0.950000000     0.350000000     0.400000000
     0.900000000     0.350000000     0.550000000
     0.950000000     0.300000000     0.550000000
     0.900000000     0.300000000     0.600000000
     0.900000000     0.350000000     0.650000000
     0.950000000     0.350000000     0.600000000
     0.900000000     0.300000000     0.700000000
     0.950000000     0.300000000     0.750000000
     0.950000000     0.350000000     0.700000000
     0.900000000     0.300000000     0.800000000
     0.900000000     0.350000000     0.850000000
     0.950000000     0.300000000     0.850000000
     0.950000000     0.350000000     0.800000000
     0.950000000     0.350000000     0.900000000
     0.900000000     0.400000000     0.000000000
     0.900000000     0.450000000     0.050000000
     0.950000000     0.400000000     0.050000000
     0.950000000     0.450000000     0.000000000
     0.900000000     0.400000000     0.100000000
     0.900000000     0.450000000     0.150000000
     0.950000000     0.400000000     0.150000000
     0.900000000     0.400000000     0.200000000
     0.900000000     0.450000000     0.250000000
     0.950000000     0.450000000     0.200000000
     0.900000000     0.400000000     0.300000000
     0.900000000     0.450000000     0.350000000
     0.950000000     0.450000000     0.300000000
     0.900000000     0.400000000     0.400000000
     0.950000000     0.400000000     0.450000000
     0.950000000     0.450000000     0.400000000
     0.900000000     0.450000000     0.550000000
     0.950000000     0.400000000     0.550000000
     0.950000000     0.450000000     0.500000000
     0.900000000     0.400000000     0.600000000
     0.950000000     0.400000000     0.650000000
     0.900000000     0.450000000     0.750000000
     0.950000000     0.400000000     0.750000000
     0.950000000     0.450000000     0.700000000
     0.900000000     0.400000000     0.800000000
     0.900000000     0.450000000     0.850000000
     0.950000000     0.400000000     0.850000000
     0.950000000     0.450000000     0.800000000
     0.900000000     0.400000000     0.900000000
     0.950000000     0.400000000     0.950000000
     0.900000000     0.500000000     0.000000000
     0.900000000     0.550000000     0.050000000
     0.950000000     0.500000000     0.050000000
     0.950000000     0.550000000     0.000000000
     0.900000000     0.550000000     0.150000000
     0.900000000     0.550000000     0.250000000
     0.950000000     0.500000000     0.250000000
     0.950000000     0.550000000     0.200000000
     0.900000000     0.500000000     0.300000000
     0.900000000     0.550000000     0.350000000
     0.950000000     0.500000000     0.350000000
     0.900000000     0.500000000     0.400000000
     0.900000000     0.550000000     0.450000000
     0.950000000     0.500000000     0.450000000
     0.900000000     0.500000000     0.500000000
     0.900000000     0.550000000     0.550000000
     0.950000000     0.500000000     0.550000000
     0.950000000     0.550000000     0.500000000
     0.900000000     0.500000000     0.600000000
     0.950000000     0.500000000     0.650000000
     0.950000000     0.550000000     0.600000000
     0.900000000     0.550000000     0.750000000
     0.950000000     0.500000000     0.750000000
     0.950000000     0.550000000     0.700000000
     0.900000000     0.550000000     0.850000000
     0.950000000     0.500000000     0.850000000
     0.950000000     0.550000000     0.800000000
     0.900000000     0.500000000     0.900000000
     0.900000000     0.550000000     0.950000000
     0.950000000     0.500000000     0.950000000
     0.950000000     0.550000000     0.900000000
     0.900000000     0.600000000     0.000000000
     0.950000000     0.600000000     0.050000000
     0.950000000     0.650000000     0.000000000
     0.950000000     0.650000000     0.100000000
     0.900000000     0.600000000     0.200000000
     0.900000000     0.650000000     0.250000000
     0.950000000     0.600000000     0.250000000
     0.950000000     0.650000000     0.200000000
     0.900000000     0.600000000     0.300000000
     0.900000000     0.650000000     0.350000000
     0.950000000     0.650000000     0.300000000
     0.900000000     0.650000000     0.450000000
     0.950000000     0.600000000     0.450000000
     0.950000000     0.650000000     0.400000000
     0.900000000     0.650000000     0.550000000
     0.950000000     0.650000000     0.500000000
     0.900000000     0.600000000     0.600000000
     0.900000000     0.650000000     0.650000000
     0.950000000     0.600000000     0.650000000
     0.900000000     0.600000000     0.700000000
     0.900000000     0.650000000     0.750000000
     0.950000000     0.600000000     0.750000000
     0.950000000     0.650000000     0.700000000
     0.900000000     0.600000000     0.800000000
     0.950000000     0.600000000     0.850000000
     0.900000000     0.600000000     0.900000000
     0.900000000     0.650000000     0.950000000
     0.950000000     0.650000000     0.900000000
     0.900000000     0.700000000     0.000000000
     0.900000000     0.750000000     0.050000000
     0.950000000     0.700000000     0.050000000
     0.950000000     0.750000000     0.000000000
     0.900000000     0.700000000     0.100000000
     0.950000000     0.700000000     0.150000000
     0.900000000     0.750000000     0.250000000
     0.900000000     0.750000000     0.350000000
     0.950000000     0.700000000     0.350000000
     0.950000000     0.750000000     0.300000000
     0.900000000     0.700000000     0.400000000
     0.900000000     0.750000000     0.450000000
     0.950000000     0.700000000     0.450000000
     0.950000000     0.750000000     0.400000000
     0.900000000     0.700000000     0.500000000
     0.900000000     0.750000000     0.550000000
     0.950000000     0.700000000     0.550000000
     0.900000000     0.700000000     0.600000000
     0.950000000     0.700000000     0.650000000
     0.950000000     0.750000000     0.600000000
     0.950000000     0.700000000     0.750000000
     0.950000000     0.750000000     0.700000000
     0.900000000     0.700000000     0.800000000
     0.900000000     0.750000000     0.850000000
     0.950000000     0.700000000     0.850000000
     0.950000000     0.750000000     0.800000000
     0.900000000     0.700000000     0.900000000
     0.950000000     0.700000000     0.950000000
     0.950000000     0.750000000     0.900000000
     0.900000000     0.800000000     0.000000000
     0.900000000     0.850000000     0.050000000
     0.950000000     0.800000000     0.050000000
     0.950000000     0.850000000     0.000000000
     0.900000000     0.800000000     0.100000000
     0.950000000     0.850000000     0.100000000
     0.900000000     0.800000000     0.200000000
     0.900000000     0.850000000     0.250000000
     0.950000000     0.850000000     0.200000000
     0.950000000     0.850000000     0.300000000
     0.900000000     0.800000000     0.400000000
     0.950000000     0.800000000     0.450000000
     0.950000000     0.850000000     0.400000000
     0.900000000     0.850000000     0.550000000
     0.900000000     0.800000000     0.600000000
     0.900000000     0.850000000     0.650000000
     0.950000000     0.800000000     0.650000000
     0.950000000     0.850000000     0.600000000
     0.900000000     0.800000000     0.700000000
     0.900000000     0.850000000     0.750000000
     0.950000000     0.800000000     0.750000000
     0.950000000     0.850000000     0.700000000
     0.900000000     0.800000000     0.800000000
     0.900000000     0.850000000     0.850000000
     0.950000000     0.800000000     0.850000000
     0.950000000     0.850000000     0.800000000
     0.900000000     0.800000000     0.900000000
     0.900000000     0.850000000     0.950000000
     0.950000000     0.800000000     0.950000000
     0.950000000     0.850000000     0.900000000
     0.900000000     0.900000000     0.000000000
     0.900000000     0.950000000     0.050000000
     0.950000000     0.950000000     0.000000000
     0.900000000     0.900000000     0.100000000
     0.900000000     0.950000000     0.150000000
     0.950000000     0.950000000     0.100000000
     0.900000000     0.900000000     0.200000000
     0.900000000     0.950000000     0.250000000
     0.950000000     0.900000000     0.250000000
     0.900000000     0.900000000     0.300000000
     0.950000000     0.900000000     0.350000000
     0.950000000     0.950000000     0.300000000
     0.900000000     0.900000000     0.400000000
     0.900000000     0.950000000     0.450000000
     0.950000000     0.900000000     0.450000000
     0.950000000     0.950000000     0.400000000
     0.900000000     0.900000000     0.500000000
     0.900000000     0.950000000     0.550000000
     0.950000000     0.900000000     0.550000000
     0.900000000     0.900000000     0.600000000
     0.900000000     0.950000000     0.650000000
     0.900000000     0.900000000     0.700000000
     0.900000000     0.950000000     0.750000000
     0.950000000     0.900000000     0.750000000
     0.950000000     0.950000000     0.700000000
     0.900000000     0.900000000     0.800000000
     0.900000000     0.950000000     0.850000000
     0.950000000     0.900000000     0.850000000
     0.900000000     0.900000000     0.900000000
     0.950000000     0.900000000     0.950000000