7×7×7 Sample_042 Score_0.7871 Seed_1781194150
1.0
    24.326021062     0.000000000     0.000000000
     0.000000000    24.326021062     0.000000000
     0.000000000     0.000000000    24.326021062
Al B C Cr Fe Mo Ni
27 27 27 115 49 137 990
Direct
     0.000000000     0.000000000     0.000000000
     0.071428571     0.142857143     0.071428571
     0.000000000     0.500000000     0.357142857
     0.000000000     0.714285714     0.857142857
     0.214285714     0.785714286     0.857142857
     0.142857143     0.857142857     0.285714286
     0.285714286     0.000000000     0.571428571
     0.285714286     0.357142857     0.357142857
     0.285714286     0.500000000     0.214285714
     0.357142857     0.714285714     0.214285714
     0.642857143     0.071428571     0.857142857
     0.642857143     0.142857143     0.071428571
     0.571428571     0.500000000     0.071428571
     0.571428571     0.428571429     0.714285714
     0.642857143     0.642857143     0.714285714
     0.642857143     0.857142857     0.071428571
     0.642857143     0.857142857     0.214285714
     0.571428571     0.857142857     0.285714286
     0.642857143     0.857142857     0.785714286
     0.785714286     0.071428571     0.285714286
     0.714285714     0.571428571     0.285714286
     0.857142857     0.000000000     0.428571429
     0.928571429     0.000000000     0.785714286
     0.857142857     0.285714286     0.142857143
     0.857142857     0.357142857     0.357142857
     0.857142857     0.428571429     0.428571429
     0.857142857     0.500000000     0.785714286
     0.071428571     0.071428571     0.142857143
     0.071428571     0.642857143     0.714285714
     0.071428571     0.571428571     0.928571429
     0.000000000     0.714285714     0.000000000
     0.214285714     0.642857143     0.285714286
     0.142857143     0.642857143     0.928571429
     0.285714286     0.642857143     0.357142857
     0.285714286     0.571428571     0.428571429
     0.357142857     0.785714286     0.571428571
     0.285714286     0.928571429     0.071428571
     0.500000000     0.142857143     0.214285714
     0.500000000     0.285714286     0.928571429
     0.500000000     0.642857143     0.285714286
     0.428571429     0.785714286     0.214285714
     0.428571429     0.857142857     0.428571429
     0.571428571     0.000000000     0.571428571
     0.642857143     0.285714286     0.928571429
     0.642857143     0.714285714     0.785714286
     0.714285714     0.071428571     0.071428571
     0.714285714     0.428571429     0.285714286
     0.714285714     0.571428571     0.571428571
     0.714285714     0.571428571     0.857142857
     0.785714286     0.714285714     0.642857143
     0.857142857     0.000000000     0.000000000
     0.928571429     0.000000000     0.357142857
     0.857142857     0.571428571     0.571428571
     0.857142857     0.714285714     0.000000000
     0.000000000     0.857142857     0.142857143
     0.142857143     0.071428571     0.500000000
     0.142857143     0.000000000     0.714285714
     0.142857143     0.642857143     0.500000000
     0.142857143     0.928571429     0.214285714
     0.357142857     0.071428571     0.428571429
     0.285714286     0.142857143     0.000000000
     0.285714286     0.214285714     0.928571429
     0.357142857     0.285714286     0.642857143
     0.285714286     0.571428571     0.857142857
     0.357142857     0.928571429     0.000000000
     0.285714286     0.857142857     0.857142857
     0.428571429     0.500000000     0.214285714
     0.500000000     0.500000000     0.142857143
     0.500000000     0.714285714     0.642857143
     0.642857143     0.357142857     0.571428571
     0.571428571     0.500000000     0.785714286
     0.714285714     0.071428571     0.642857143
     0.714285714     0.285714286     0.285714286
     0.785714286     0.428571429     0.071428571
     0.785714286     0.428571429     0.357142857
     0.785714286     0.714285714     0.071428571
     0.928571429     0.000000000     0.500000000
     0.928571429     0.428571429     0.214285714
     0.928571429     0.571428571     0.785714286
     0.928571429     0.785714286     0.714285714
     0.857142857     0.928571429     0.071428571
     0.000000000     0.071428571     0.071428571
     0.000000000     0.000000000     0.142857143
     0.000000000     0.071428571     0.500000000
     0.071428571     0.214285714     0.000000000
     0.071428571     0.142857143     0.357142857
     0.071428571     0.214285714     0.285714286
     0.000000000     0.285714286     0.000000000
     0.071428571     0.285714286     0.642857143
     0.071428571     0.357142857     0.714285714
     0.000000000     0.428571429     0.285714286
     0.000000000     0.714285714     0.714285714
     0.000000000     0.857142857     0.000000000
     0.000000000     0.928571429     0.785714286
     0.071428571     0.928571429     0.714285714
     0.142857143     0.071428571     0.642857143
     0.142857143     0.071428571     0.928571429
     0.142857143     0.285714286     0.000000000
     0.214285714     0.357142857     0.142857143
     0.214285714     0.500000000     0.142857143
     0.142857143     0.428571429     0.428571429
     0.142857143     0.428571429     0.571428571
     0.214285714     0.500000000     0.571428571
     0.142857143     0.642857143     0.214285714
     0.142857143     0.642857143     0.642857143
     0.214285714     0.642857143     0.714285714
     0.142857143     0.714285714     0.000000000
     0.214285714     0.785714286     0.000000000
     0.214285714     0.785714286     0.285714286
     0.142857143     0.928571429     0.357142857
     0.142857143     0.928571429     0.642857143
     0.214285714     0.857142857     0.785714286
     0.142857143     0.928571429     0.928571429
     0.285714286     0.000000000     0.285714286
     0.357142857     0.000000000     0.500000000
     0.357142857     0.071428571     0.571428571
     0.357142857     0.142857143     0.214285714
     0.357142857     0.357142857     0.285714286
     0.285714286     0.357142857     0.500000000
     0.285714286     0.357142857     0.642857143
     0.357142857     0.357142857     0.571428571
     0.357142857     0.357142857     0.857142857
     0.285714286     0.428571429     0.285714286
     0.357142857     0.500000000     0.285714286
     0.357142857     0.571428571     0.071428571
     0.285714286     0.571428571     0.142857143
     0.357142857     0.642857143     0.142857143
     0.285714286     0.642857143     0.500000000
     0.357142857     0.642857143     0.428571429
     0.285714286     0.642857143     0.785714286
     0.357142857     0.785714286     0.428571429
     0.285714286     0.785714286     0.928571429
     0.285714286     0.857142857     0.285714286
     0.428571429     0.214285714     0.071428571
     0.500000000     0.142857143     0.071428571
     0.500000000     0.142857143     0.785714286
     0.500000000     0.357142857     0.428571429
     0.428571429     0.285714286     0.571428571
     0.500000000     0.428571429     0.357142857
     0.428571429     0.500000000     0.928571429
     0.500000000     0.642857143     0.428571429
     0.500000000     0.785714286     0.714285714
     0.428571429     0.857142857     0.142857143
     0.642857143     0.000000000     0.214285714
     0.571428571     0.000000000     0.428571429
     0.642857143     0.000000000     0.500000000
     0.571428571     0.142857143     0.285714286
     0.642857143     0.142857143     0.642857143
     0.571428571     0.142857143     0.714285714
     0.642857143     0.214285714     0.857142857
     0.571428571     0.357142857     0.071428571
     0.642857143     0.357142857     0.285714286
     0.571428571     0.500000000     0.928571429
     0.642857143     0.428571429     0.928571429
     0.642857143     0.500000000     0.857142857
     0.642857143     0.571428571     0.500000000
     0.571428571     0.571428571     0.571428571
     0.642857143     0.571428571     0.785714286
     0.642857143     0.714285714     0.214285714
     0.642857143     0.785714286     0.714285714
     0.642857143     0.714285714     0.928571429
     0.642857143     0.928571429     0.428571429
     0.571428571     0.928571429     0.642857143
     0.714285714     0.000000000     0.142857143
     0.714285714     0.000000000     0.714285714
     0.714285714     0.071428571     0.785714286
     0.785714286     0.000000000     0.785714286
     0.714285714     0.142857143     0.000000000
     0.714285714     0.142857143     0.285714286
     0.714285714     0.142857143     0.714285714
     0.785714286     0.357142857     0.000000000
     0.785714286     0.357142857     0.571428571
     0.785714286     0.285714286     0.928571429
     0.785714286     0.500000000     0.714285714
     0.785714286     0.642857143     0.571428571
     0.785714286     0.785714286     0.142857143
     0.714285714     0.714285714     0.285714286
     0.714285714     0.714285714     0.714285714
     0.714285714     0.857142857     0.000000000
     0.785714286     0.928571429     0.142857143
     0.714285714     0.928571429     0.357142857
     0.785714286     0.857142857     0.785714286
     0.785714286     0.928571429     0.857142857
     0.928571429     0.142857143     0.214285714
     0.857142857     0.357142857     0.071428571
     0.928571429     0.285714286     0.214285714
     0.857142857     0.357142857     0.928571429
     0.928571429     0.285714286     0.928571429
     0.928571429     0.428571429     0.928571429
     0.928571429     0.571428571     0.071428571
     0.857142857     0.571428571     0.142857143
     0.857142857     0.785714286     0.357142857
     0.857142857     0.857142857     0.142857143
     0.928571429     0.857142857     0.214285714
     0.857142857     0.928571429     0.357142857
     0.928571429     0.928571429     0.857142857
     0.071428571     0.000000000     0.214285714
     0.000000000     0.142857143     0.857142857
     0.000000000     0.500000000     0.071428571
     0.071428571     0.571428571     0.785714286
     0.000000000     0.928571429     0.357142857
     0.214285714     0.000000000     0.642857143
     0.214285714     0.071428571     0.571428571
     0.214285714     0.214285714     0.857142857
     0.142857143     0.428571429     0.000000000
     0.142857143     0.428571429     0.142857143
     0.214285714     0.785714286     0.571428571
     0.214285714     0.928571429     0.000000000
     0.357142857     0.071428571     0.857142857
     0.285714286     0.285714286     0.000000000
     0.285714286     0.357142857     0.785714286
     0.357142857     0.500000000     0.857142857
     0.357142857     0.571428571     0.357142857
     0.285714286     0.571428571     0.571428571
     0.357142857     0.928571429     0.857142857
     0.500000000     0.000000000     0.357142857
     0.428571429     0.071428571     0.928571429
     0.500000000     0.214285714     0.142857143
     0.428571429     0.142857143     0.571428571
     0.500000000     0.500000000     0.428571429
     0.500000000     0.571428571     0.214285714
     0.428571429     0.571428571     0.285714286
     0.428571429     0.642857143     0.357142857
     0.500000000     0.857142857     0.214285714
     0.428571429     0.857142857     0.571428571
     0.571428571     0.000000000     0.142857143
     0.642857143     0.142857143     0.357142857
     0.642857143     0.142857143     0.500000000
     0.571428571     0.285714286     0.571428571
     0.571428571     0.357142857     0.642857143
     0.642857143     0.428571429     0.071428571
     0.571428571     0.642857143     0.071428571
     0.571428571     0.571428571     0.428571429
     0.714285714     0.428571429     0.428571429
     0.785714286     0.642857143     0.000000000
     0.785714286     0.571428571     0.357142857
     0.714285714     0.785714286     0.785714286
     0.714285714     0.857142857     0.714285714
     0.857142857     0.000000000     0.571428571
     0.928571429     0.214285714     0.000000000
     0.928571429     0.214285714     0.714285714
     0.857142857     0.571428571     0.285714286
     0.928571429     0.571428571     0.642857143
     0.857142857     0.714285714     0.428571429
     0.928571429     0.857142857     0.642857143
     0.071428571     0.071428571     0.571428571
     0.071428571     0.071428571     0.714285714
     0.000000000     0.214285714     0.214285714
     0.000000000     0.142857143     0.428571429
     0.000000000     0.142857143     0.571428571
     0.071428571     0.214285714     0.571428571
     0.071428571     0.357142857     0.142857143
     0.071428571     0.357142857     0.428571429
     0.071428571     0.285714286     0.928571429
     0.071428571     0.357142857     0.857142857
     0.071428571     0.428571429     0.071428571
     0.000000000     0.428571429     0.428571429
     0.071428571     0.428571429     0.785714286
     0.000000000     0.642857143     0.071428571
     0.000000000     0.571428571     0.428571429
     0.071428571     0.642857143     0.428571429
     0.071428571     0.785714286     0.285714286
     0.000000000     0.785714286     0.642857143
     0.000000000     0.928571429     0.642857143
     0.071428571     0.928571429     0.571428571
     0.000000000     0.928571429     0.928571429
     0.214285714     0.071428571     0.142857143
     0.214285714     0.071428571     0.285714286
     0.214285714     0.000000000     0.785714286
     0.214285714     0.000000000     0.928571429
     0.214285714     0.142857143     0.071428571
     0.214285714     0.214285714     0.000000000
     0.142857143     0.214285714     0.642857143
     0.214285714     0.142857143     0.928571429
     0.214285714     0.357142857     0.000000000
     0.214285714     0.357142857     0.285714286
     0.142857143     0.285714286     0.428571429
     0.214285714     0.357142857     0.571428571
     0.214285714     0.285714286     0.928571429
     0.142857143     0.500000000     0.500000000
     0.214285714     0.500000000     0.428571429
     0.142857143     0.500000000     0.642857143
     0.214285714     0.571428571     0.214285714
     0.214285714     0.714285714     0.500000000
     0.142857143     0.714285714     0.714285714
     0.142857143     0.928571429     0.071428571
     0.214285714     0.928571429     0.142857143
     0.142857143     0.928571429     0.785714286
     0.357142857     0.000000000     0.642857143
     0.285714286     0.142857143     0.285714286
     0.357142857     0.142857143     0.500000000
     0.357142857     0.214285714     0.428571429
     0.357142857     0.142857143     0.785714286
     0.285714286     0.357142857     0.928571429
     0.357142857     0.285714286     0.928571429
     0.285714286     0.500000000     0.642857143
     0.285714286     0.428571429     0.857142857
     0.357142857     0.642857143     0.000000000
     0.285714286     0.571428571     0.285714286
     0.285714286     0.642857143     0.642857143
     0.357142857     0.642857143     0.571428571
     0.357142857     0.571428571     0.785714286
     0.357142857     0.642857143     0.857142857
     0.285714286     0.785714286     0.357142857
     0.357142857     0.714285714     0.357142857
     0.357142857     0.785714286     0.857142857
     0.428571429     0.000000000     0.142857143
     0.500000000     0.071428571     0.857142857
     0.500000000     0.214285714     0.428571429
     0.500000000     0.285714286     0.785714286
     0.428571429     0.500000000     0.071428571
     0.500000000     0.500000000     0.285714286
     0.428571429     0.428571429     0.857142857
     0.500000000     0.428571429     0.928571429
     0.428571429     0.571428571     0.142857143
     0.428571429     0.571428571     0.428571429
     0.428571429     0.571428571     0.714285714
     0.500000000     0.714285714     0.214285714
     0.500000000     0.714285714     0.785714286
     0.428571429     0.785714286     0.928571429
     0.428571429     0.928571429     0.642857143
     0.428571429     0.928571429     0.785714286
     0.500000000     0.928571429     0.714285714
     0.571428571     0.071428571     0.214285714
     0.571428571     0.000000000     0.285714286
     0.642857143     0.071428571     0.571428571
     0.642857143     0.285714286     0.357142857
     0.642857143     0.285714286     0.642857143
     0.571428571     0.285714286     0.714285714
     0.571428571     0.285714286     0.857142857
     0.642857143     0.428571429     0.357142857
     0.642857143     0.428571429     0.785714286
     0.571428571     0.571428571     0.000000000
     0.642857143     0.642857143     0.571428571
     0.571428571     0.642857143     0.785714286
     0.571428571     0.785714286     0.071428571
     0.571428571     0.785714286     0.214285714
     0.642857143     0.928571429     0.714285714
     0.714285714     0.071428571     0.357142857
     0.714285714     0.071428571     0.928571429
     0.785714286     0.142857143     0.071428571
     0.714285714     0.214285714     0.214285714
     0.714285714     0.142857143     0.428571429
     0.714285714     0.214285714     0.500000000
     0.785714286     0.214285714     0.714285714
     0.785714286     0.285714286     0.214285714
     0.785714286     0.357142857     0.285714286
     0.714285714     0.357142857     0.500000000
     0.785714286     0.285714286     0.642857143
     0.714285714     0.357142857     0.785714286
     0.785714286     0.500000000     0.571428571
     0.714285714     0.642857143     0.214285714
     0.714285714     0.642857143     0.500000000
     0.785714286     0.642857143     0.714285714
     0.785714286     0.785714286     0.000000000
     0.714285714     0.785714286     0.500000000
     0.785714286     0.857142857     0.357142857
     0.714285714     0.857142857     0.571428571
     0.857142857     0.071428571     0.928571429
     0.928571429     0.000000000     0.928571429
     0.928571429     0.142857143     0.071428571
     0.928571429     0.142857143     0.357142857
     0.928571429     0.214285714     0.285714286
     0.857142857     0.214285714     0.642857143
     0.857142857     0.214285714     0.785714286
     0.857142857     0.357142857     0.214285714
     0.857142857     0.285714286     0.285714286
     0.857142857     0.285714286     0.714285714
     0.857142857     0.357142857     0.785714286
     0.928571429     0.500000000     0.000000000
     0.857142857     0.500000000     0.214285714
     0.928571429     0.500000000     0.285714286
     0.857142857     0.500000000     0.500000000
     0.928571429     0.500000000     0.428571429
     0.857142857     0.500000000     0.642857143
     0.857142857     0.428571429     0.714285714
     0.857142857     0.500000000     0.928571429
     0.928571429     0.571428571     0.928571429
     0.857142857     0.785714286     0.214285714
     0.928571429     0.785714286     0.285714286
     0.928571429     0.714285714     0.785714286
     0.857142857     0.928571429     0.928571429
     0.071428571     0.000000000     0.071428571
     0.071428571     0.071428571     0.000000000
     0.000000000     0.071428571     0.214285714
     0.000000000     0.000000000     0.285714286
     0.000000000     0.071428571     0.357142857
     0.071428571     0.000000000     0.357142857
     0.071428571     0.071428571     0.285714286
     0.000000000     0.000000000     0.428571429
     0.071428571     0.000000000     0.500000000
     0.071428571     0.071428571     0.428571429
     0.000000000     0.000000000     0.571428571
     0.000000000     0.071428571     0.642857143
     0.071428571     0.000000000     0.642857143
     0.000000000     0.000000000     0.714285714
     0.000000000     0.071428571     0.785714286
     0.071428571     0.000000000     0.785714286
     0.000000000     0.000000000     0.857142857
     0.000000000     0.071428571     0.928571429
     0.071428571     0.000000000     0.928571429
     0.071428571     0.071428571     0.857142857
     0.000000000     0.142857143     0.000000000
     0.000000000     0.214285714     0.071428571
     0.000000000     0.142857143     0.142857143
     0.071428571     0.142857143     0.214285714
     0.071428571     0.214285714     0.142857143
     0.000000000     0.142857143     0.285714286
     0.000000000     0.214285714     0.357142857
     0.000000000     0.214285714     0.500000000
     0.071428571     0.142857143     0.500000000
     0.071428571     0.214285714     0.428571429
     0.000000000     0.214285714     0.642857143
     0.071428571     0.142857143     0.642857143
     0.000000000     0.142857143     0.714285714
     0.000000000     0.214285714     0.785714286
     0.071428571     0.142857143     0.785714286
     0.071428571     0.214285714     0.714285714
     0.000000000     0.214285714     0.928571429
     0.071428571     0.142857143     0.928571429
     0.071428571     0.214285714     0.857142857
     0.000000000     0.357142857     0.071428571
     0.071428571     0.285714286     0.071428571
     0.071428571     0.357142857     0.000000000
     0.000000000     0.285714286     0.142857143
     0.000000000     0.357142857     0.214285714
     0.071428571     0.285714286     0.214285714
     0.000000000     0.285714286     0.285714286
     0.000000000     0.357142857     0.357142857
     0.071428571     0.285714286     0.357142857
     0.071428571     0.357142857     0.285714286
     0.000000000     0.285714286     0.428571429
     0.000000000     0.357142857     0.500000000
     0.071428571     0.285714286     0.500000000
     0.000000000     0.285714286     0.571428571
     0.000000000     0.357142857     0.642857143
     0.071428571     0.357142857     0.571428571
     0.000000000     0.285714286     0.714285714
     0.000000000     0.357142857     0.785714286
     0.071428571     0.285714286     0.785714286
     0.000000000     0.285714286     0.857142857
     0.000000000     0.357142857     0.928571429
     0.000000000     0.428571429     0.000000000
     0.071428571     0.500000000     0.000000000
     0.000000000     0.428571429     0.142857143
     0.000000000     0.500000000     0.214285714
     0.071428571     0.428571429     0.214285714
     0.071428571     0.500000000     0.142857143
     0.071428571     0.428571429     0.357142857
     0.071428571     0.500000000     0.285714286
     0.000000000     0.500000000     0.500000000
     0.071428571     0.428571429     0.500000000
     0.071428571     0.500000000     0.428571429
     0.000000000     0.428571429     0.571428571
     0.000000000     0.500000000     0.642857143
     0.071428571     0.428571429     0.642857143
     0.071428571     0.500000000     0.571428571
     0.000000000     0.428571429     0.714285714
     0.000000000     0.500000000     0.785714286
     0.071428571     0.500000000     0.714285714
     0.000000000     0.428571429     0.857142857
     0.000000000     0.500000000     0.928571429
     0.071428571     0.428571429     0.928571429
     0.071428571     0.500000000     0.857142857
     0.000000000     0.571428571     0.000000000
     0.071428571     0.571428571     0.071428571
     0.071428571     0.642857143     0.000000000
     0.000000000     0.571428571     0.142857143
     0.000000000     0.642857143     0.214285714
     0.071428571     0.571428571     0.214285714
     0.071428571     0.642857143     0.142857143
     0.000000000     0.571428571     0.285714286
     0.000000000     0.642857143     0.357142857
     0.071428571     0.571428571     0.357142857
     0.071428571     0.642857143     0.285714286
     0.000000000     0.642857143     0.500000000
     0.071428571     0.571428571     0.500000000
     0.000000000     0.571428571     0.571428571
     0.000000000     0.642857143     0.642857143
     0.071428571     0.571428571     0.642857143
     0.071428571     0.642857143     0.571428571
     0.000000000     0.571428571     0.714285714
     0.000000000     0.642857143     0.785714286
     0.000000000     0.571428571     0.857142857
     0.000000000     0.642857143     0.928571429
     0.071428571     0.642857143     0.857142857
     0.000000000     0.785714286     0.071428571
     0.071428571     0.714285714     0.071428571
     0.071428571     0.785714286     0.000000000
     0.000000000     0.714285714     0.142857143
     0.000000000     0.785714286     0.214285714
     0.071428571     0.714285714     0.214285714
     0.071428571     0.785714286     0.142857143
     0.000000000     0.714285714     0.285714286
     0.000000000     0.785714286     0.357142857
     0.071428571     0.714285714     0.357142857
     0.000000000     0.714285714     0.428571429
     0.000000000     0.785714286     0.500000000
     0.071428571     0.714285714     0.500000000
     0.071428571     0.785714286     0.428571429
     0.000000000     0.714285714     0.571428571
     0.071428571     0.714285714     0.642857143
     0.071428571     0.785714286     0.571428571
     0.000000000     0.785714286     0.785714286
     0.071428571     0.714285714     0.785714286
     0.071428571     0.785714286     0.714285714
     0.000000000     0.785714286     0.928571429
     0.071428571     0.714285714     0.928571429
     0.071428571     0.785714286     0.857142857
     0.000000000     0.928571429     0.071428571
     0.071428571     0.857142857     0.071428571
     0.071428571     0.928571429     0.000000000
     0.000000000     0.928571429     0.214285714
     0.071428571     0.857142857     0.214285714
     0.071428571     0.928571429     0.142857143
     0.000000000     0.857142857     0.285714286
     0.071428571     0.857142857     0.357142857
     0.071428571     0.928571429     0.285714286
     0.000000000     0.857142857     0.428571429
     0.000000000     0.928571429     0.500000000
     0.071428571     0.857142857     0.500000000
     0.071428571     0.928571429     0.428571429
     0.000000000     0.857142857     0.571428571
     0.071428571     0.857142857     0.642857143
     0.000000000     0.857142857     0.714285714
     0.071428571     0.857142857     0.785714286
     0.000000000     0.857142857     0.857142857
     0.071428571     0.857142857     0.928571429
     0.071428571     0.928571429     0.857142857
     0.142857143     0.000000000     0.000000000
     0.142857143     0.071428571     0.071428571
     0.214285714     0.000000000     0.071428571
     0.214285714     0.071428571     0.000000000
     0.142857143     0.000000000     0.142857143
     0.142857143     0.071428571     0.214285714
     0.214285714     0.000000000     0.214285714
     0.142857143     0.000000000     0.285714286
     0.142857143     0.071428571     0.357142857
     0.214285714     0.000000000     0.357142857
     0.142857143     0.000000000     0.428571429
     0.214285714     0.000000000     0.500000000
     0.214285714     0.071428571     0.428571429
     0.142857143     0.000000000     0.571428571
     0.142857143     0.071428571     0.785714286
     0.214285714     0.071428571     0.714285714
     0.142857143     0.000000000     0.857142857
     0.214285714     0.071428571     0.857142857
     0.142857143     0.142857143     0.000000000
     0.142857143     0.214285714     0.071428571
     0.142857143     0.142857143     0.142857143
     0.142857143     0.214285714     0.214285714
     0.214285714     0.142857143     0.214285714
     0.214285714     0.214285714     0.142857143
     0.142857143     0.142857143     0.285714286
     0.142857143     0.214285714     0.357142857
     0.214285714     0.142857143     0.357142857
     0.214285714     0.214285714     0.285714286
     0.142857143     0.142857143     0.428571429
     0.142857143     0.214285714     0.500000000
     0.214285714     0.142857143     0.500000000
     0.214285714     0.214285714     0.428571429
     0.142857143     0.142857143     0.571428571
     0.214285714     0.142857143     0.642857143
     0.214285714     0.214285714     0.571428571
     0.142857143     0.142857143     0.714285714
     0.142857143     0.214285714     0.785714286
     0.214285714     0.142857143     0.785714286
     0.214285714     0.214285714     0.714285714
     0.142857143     0.142857143     0.857142857
     0.142857143     0.214285714     0.928571429
     0.142857143     0.357142857     0.071428571
     0.214285714     0.285714286     0.071428571
     0.142857143     0.285714286     0.142857143
     0.142857143     0.357142857     0.214285714
     0.214285714     0.285714286     0.214285714
     0.142857143     0.285714286     0.285714286
     0.142857143     0.357142857     0.357142857
     0.214285714     0.285714286     0.357142857
     0.142857143     0.357142857     0.500000000
     0.214285714     0.285714286     0.500000000
     0.214285714     0.357142857     0.428571429
     0.142857143     0.285714286     0.571428571
     0.142857143     0.357142857     0.642857143
     0.214285714     0.285714286     0.642857143
     0.142857143     0.285714286     0.714285714
     0.142857143     0.357142857     0.785714286
     0.214285714     0.285714286     0.785714286
     0.214285714     0.357142857     0.714285714
     0.142857143     0.285714286     0.857142857
     0.142857143     0.357142857     0.928571429
     0.214285714     0.357142857     0.857142857
     0.142857143     0.500000000     0.071428571
     0.214285714     0.428571429     0.071428571
     0.214285714     0.500000000     0.000000000
     0.142857143     0.500000000     0.214285714
     0.214285714     0.428571429     0.214285714
     0.142857143     0.428571429     0.285714286
     0.142857143     0.500000000     0.357142857
     0.214285714     0.428571429     0.357142857
     0.214285714     0.500000000     0.285714286
     0.214285714     0.428571429     0.500000000
     0.214285714     0.428571429     0.642857143
     0.142857143     0.428571429     0.714285714
     0.142857143     0.500000000     0.785714286
     0.214285714     0.428571429     0.785714286
     0.214285714     0.500000000     0.714285714
     0.142857143     0.428571429     0.857142857
     0.142857143     0.500000000     0.928571429
     0.214285714     0.428571429     0.928571429
     0.214285714     0.500000000     0.857142857
     0.142857143     0.571428571     0.000000000
     0.142857143     0.642857143     0.071428571
     0.214285714     0.571428571     0.071428571
     0.214285714     0.642857143     0.000000000
     0.142857143     0.571428571     0.142857143
     0.214285714     0.642857143     0.142857143
     0.142857143     0.571428571     0.285714286
     0.142857143     0.642857143     0.357142857
     0.214285714     0.571428571     0.357142857
     0.142857143     0.571428571     0.428571429
     0.214285714     0.571428571     0.500000000
     0.214285714     0.642857143     0.428571429
     0.142857143     0.571428571     0.571428571
     0.214285714     0.571428571     0.642857143
     0.214285714     0.642857143     0.571428571
     0.142857143     0.571428571     0.714285714
     0.142857143     0.642857143     0.785714286
     0.214285714     0.571428571     0.785714286
     0.142857143     0.571428571     0.857142857
     0.214285714     0.571428571     0.928571429
     0.214285714     0.642857143     0.857142857
     0.142857143     0.785714286     0.071428571
     0.214285714     0.714285714     0.071428571
     0.142857143     0.714285714     0.142857143
     0.142857143     0.785714286     0.214285714
     0.214285714     0.714285714     0.214285714
     0.214285714     0.785714286     0.142857143
     0.142857143     0.714285714     0.285714286
     0.142857143     0.785714286     0.357142857
     0.214285714     0.714285714     0.357142857
     0.142857143     0.714285714     0.428571429
     0.142857143     0.785714286     0.500000000
     0.214285714     0.785714286     0.428571429
     0.142857143     0.714285714     0.571428571
     0.142857143     0.785714286     0.642857143
     0.214285714     0.714285714     0.642857143
     0.142857143     0.785714286     0.785714286
     0.214285714     0.714285714     0.785714286
     0.214285714     0.785714286     0.714285714
     0.142857143     0.714285714     0.857142857
     0.142857143     0.785714286     0.928571429
     0.214285714     0.714285714     0.928571429
     0.142857143     0.857142857     0.000000000
     0.214285714     0.857142857     0.071428571
     0.142857143     0.857142857     0.142857143
     0.214285714     0.857142857     0.214285714
     0.214285714     0.857142857     0.357142857
     0.214285714     0.928571429     0.285714286
     0.142857143     0.857142857     0.428571429
     0.142857143     0.928571429     0.500000000
     0.214285714     0.857142857     0.500000000
     0.214285714     0.928571429     0.428571429
     0.142857143     0.857142857     0.571428571
     0.214285714     0.857142857     0.642857143
     0.214285714     0.928571429     0.571428571
     0.142857143     0.857142857     0.714285714
     0.214285714     0.928571429     0.714285714
     0.142857143     0.857142857     0.857142857
     0.214285714     0.857142857     0.928571429
     0.214285714     0.928571429     0.857142857
     0.285714286     0.000000000     0.000000000
     0.285714286     0.071428571     0.071428571
     0.357142857     0.000000000     0.071428571
     0.357142857     0.071428571     0.000000000
     0.285714286     0.000000000     0.142857143
     0.285714286     0.071428571     0.214285714
     0.357142857     0.000000000     0.214285714
     0.357142857     0.071428571     0.142857143
     0.285714286     0.071428571     0.357142857
     0.357142857     0.000000000     0.357142857
     0.357142857     0.071428571     0.285714286
     0.285714286     0.000000000     0.428571429
     0.285714286     0.071428571     0.500000000
     0.285714286     0.071428571     0.642857143
     0.285714286     0.000000000     0.714285714
     0.285714286     0.071428571     0.785714286
     0.357142857     0.000000000     0.785714286
     0.357142857     0.071428571     0.714285714
     0.285714286     0.000000000     0.857142857
     0.285714286     0.071428571     0.928571429
     0.357142857     0.000000000     0.928571429
     0.285714286     0.214285714     0.071428571
     0.357142857     0.142857143     0.071428571
     0.357142857     0.214285714     0.000000000
     0.285714286     0.142857143     0.142857143
     0.285714286     0.214285714     0.214285714
     0.357142857     0.214285714     0.142857143
     0.285714286     0.214285714     0.357142857
     0.357142857     0.142857143     0.357142857
     0.357142857     0.214285714     0.285714286
     0.285714286     0.142857143     0.428571429
     0.285714286     0.214285714     0.500000000
     0.285714286     0.142857143     0.571428571
     0.285714286     0.214285714     0.642857143
     0.357142857     0.142857143     0.642857143
     0.357142857     0.214285714     0.571428571
     0.285714286     0.142857143     0.714285714
     0.285714286     0.214285714     0.785714286
     0.357142857     0.214285714     0.714285714
     0.285714286     0.142857143     0.857142857
     0.357142857     0.142857143     0.928571429
     0.357142857     0.214285714     0.857142857
     0.285714286     0.357142857     0.071428571
     0.357142857     0.285714286     0.071428571
     0.357142857     0.357142857     0.000000000
     0.285714286     0.285714286     0.142857143
     0.285714286     0.357142857     0.214285714
     0.357142857     0.285714286     0.214285714
     0.357142857     0.357142857     0.142857143
     0.285714286     0.285714286     0.285714286
     0.357142857     0.285714286     0.357142857
     0.285714286     0.285714286     0.428571429
     0.357142857     0.285714286     0.500000000
     0.357142857     0.357142857     0.428571429
     0.285714286     0.285714286     0.571428571
     0.285714286     0.285714286     0.714285714
     0.357142857     0.285714286     0.785714286
     0.357142857     0.357142857     0.714285714
     0.285714286     0.285714286     0.857142857
     0.285714286     0.428571429     0.000000000
     0.285714286     0.500000000     0.071428571
     0.357142857     0.428571429     0.071428571
     0.357142857     0.500000000     0.000000000
     0.285714286     0.428571429     0.142857143
     0.357142857     0.428571429     0.214285714
     0.357142857     0.500000000     0.142857143
     0.285714286     0.500000000     0.357142857
     0.357142857     0.428571429     0.357142857
     0.285714286     0.428571429     0.428571429
     0.285714286     0.500000000     0.500000000
     0.357142857     0.428571429     0.500000000
     0.357142857     0.500000000     0.428571429
     0.285714286     0.428571429     0.571428571
     0.357142857     0.428571429     0.642857143
     0.357142857     0.500000000     0.571428571
     0.285714286     0.428571429     0.714285714
     0.285714286     0.500000000     0.785714286
     0.357142857     0.428571429     0.785714286
     0.357142857     0.500000000     0.714285714
     0.285714286     0.500000000     0.928571429
     0.357142857     0.428571429     0.928571429
     0.285714286     0.571428571     0.000000000
     0.285714286     0.642857143     0.071428571
     0.285714286     0.642857143     0.214285714
     0.357142857     0.571428571     0.214285714
     0.357142857     0.642857143     0.285714286
     0.357142857     0.571428571     0.500000000
     0.357142857     0.571428571     0.642857143
     0.285714286     0.571428571     0.714285714
     0.357142857     0.642857143     0.714285714
     0.285714286     0.642857143     0.928571429
     0.357142857     0.571428571     0.928571429
     0.285714286     0.714285714     0.000000000
     0.285714286     0.785714286     0.071428571
     0.357142857     0.714285714     0.071428571
     0.357142857     0.785714286     0.000000000
     0.285714286     0.714285714     0.142857143
     0.285714286     0.785714286     0.214285714
     0.357142857     0.785714286     0.142857143
     0.285714286     0.714285714     0.285714286
     0.357142857     0.785714286     0.285714286
     0.285714286     0.714285714     0.428571429
     0.285714286     0.785714286     0.500000000
     0.357142857     0.714285714     0.500000000
     0.285714286     0.714285714     0.571428571
     0.285714286     0.785714286     0.642857143
     0.357142857     0.714285714     0.642857143
     0.285714286     0.714285714     0.714285714
     0.285714286     0.785714286     0.785714286
     0.357142857     0.714285714     0.785714286
     0.357142857     0.785714286     0.714285714
     0.285714286     0.714285714     0.857142857
     0.357142857     0.714285714     0.928571429
     0.285714286     0.857142857     0.000000000
     0.357142857     0.857142857     0.071428571
     0.285714286     0.857142857     0.142857143
     0.285714286     0.928571429     0.214285714
     0.357142857     0.857142857     0.214285714
     0.357142857     0.928571429     0.142857143
     0.285714286     0.928571429     0.357142857
     0.357142857     0.857142857     0.357142857
     0.357142857     0.928571429     0.285714286
     0.285714286     0.857142857     0.428571429
     0.285714286     0.928571429     0.500000000
     0.357142857     0.857142857     0.500000000
     0.357142857     0.928571429     0.428571429
     0.285714286     0.857142857     0.571428571
     0.285714286     0.928571429     0.642857143
     0.357142857     0.857142857     0.642857143
     0.357142857     0.928571429     0.571428571
     0.285714286     0.857142857     0.714285714
     0.285714286     0.928571429     0.785714286
     0.357142857     0.857142857     0.785714286
     0.357142857     0.928571429     0.714285714
     0.285714286     0.928571429     0.928571429
     0.357142857     0.857142857     0.928571429
     0.428571429     0.000000000     0.000000000
     0.428571429     0.071428571     0.071428571
     0.500000000     0.000000000     0.071428571
     0.500000000     0.071428571     0.000000000
     0.428571429     0.071428571     0.214285714
     0.500000000     0.000000000     0.214285714
     0.500000000     0.071428571     0.142857143
     0.428571429     0.000000000     0.285714286
     0.428571429     0.071428571     0.357142857
     0.500000000     0.071428571     0.285714286
     0.428571429     0.000000000     0.428571429
     0.428571429     0.071428571     0.500000000
     0.500000000     0.000000000     0.500000000
     0.500000000     0.071428571     0.428571429
     0.428571429     0.000000000     0.571428571
     0.428571429     0.071428571     0.642857143
     0.500000000     0.000000000     0.642857143
     0.500000000     0.071428571     0.571428571
     0.428571429     0.000000000     0.714285714
     0.428571429     0.071428571     0.785714286
     0.500000000     0.000000000     0.785714286
     0.500000000     0.071428571     0.714285714
     0.428571429     0.000000000     0.857142857
     0.500000000     0.000000000     0.928571429
     0.428571429     0.142857143     0.000000000
     0.500000000     0.214285714     0.000000000
     0.428571429     0.142857143     0.142857143
     0.428571429     0.214285714     0.214285714
     0.428571429     0.142857143     0.285714286
     0.428571429     0.214285714     0.357142857
     0.500000000     0.142857143     0.357142857
     0.500000000     0.214285714     0.285714286
     0.428571429     0.142857143     0.428571429
     0.428571429     0.214285714     0.500000000
     0.500000000     0.142857143     0.500000000
     0.428571429     0.214285714     0.642857143
     0.500000000     0.142857143     0.642857143
     0.500000000     0.214285714     0.571428571
     0.428571429     0.142857143     0.714285714
     0.428571429     0.214285714     0.785714286
     0.500000000     0.214285714     0.714285714
     0.428571429     0.142857143     0.857142857
     0.428571429     0.214285714     0.928571429
     0.500000000     0.142857143     0.928571429
     0.500000000     0.214285714     0.857142857
     0.428571429     0.285714286     0.000000000
     0.428571429     0.357142857     0.071428571
     0.500000000     0.285714286     0.071428571
     0.500000000     0.357142857     0.000000000
     0.428571429     0.285714286     0.142857143
     0.428571429     0.357142857     0.214285714
     0.500000000     0.285714286     0.214285714
     0.500000000     0.357142857     0.142857143
     0.428571429     0.285714286     0.285714286
     0.428571429     0.357142857     0.357142857
     0.500000000     0.285714286     0.357142857
     0.500000000     0.357142857     0.285714286
     0.428571429     0.285714286     0.428571429
     0.428571429     0.357142857     0.500000000
     0.500000000     0.285714286     0.500000000
     0.428571429     0.357142857     0.642857143
     0.500000000     0.285714286     0.642857143
     0.500000000     0.357142857     0.571428571
     0.428571429     0.285714286     0.714285714
     0.428571429     0.357142857     0.785714286
     0.500000000     0.357142857     0.714285714
     0.428571429     0.285714286     0.857142857
     0.428571429     0.357142857     0.928571429
     0.500000000     0.357142857     0.857142857
     0.428571429     0.428571429     0.000000000
     0.500000000     0.428571429     0.071428571
     0.500000000     0.500000000     0.000000000
     0.428571429     0.428571429     0.142857143
     0.500000000     0.428571429     0.214285714
     0.428571429     0.428571429     0.285714286
     0.428571429     0.500000000     0.357142857
     0.428571429     0.428571429     0.428571429
     0.428571429     0.500000000     0.500000000
     0.500000000     0.428571429     0.500000000
     0.428571429     0.428571429     0.571428571
     0.428571429     0.500000000     0.642857143
     0.500000000     0.428571429     0.642857143
     0.500000000     0.500000000     0.571428571
     0.428571429     0.428571429     0.714285714
     0.428571429     0.500000000     0.785714286
     0.500000000     0.428571429     0.785714286
     0.500000000     0.500000000     0.714285714
     0.500000000     0.500000000     0.857142857
     0.428571429     0.571428571     0.000000000
     0.428571429     0.642857143     0.071428571
     0.500000000     0.571428571     0.071428571
     0.500000000     0.642857143     0.000000000
     0.428571429     0.642857143     0.214285714
     0.500000000     0.642857143     0.142857143
     0.500000000     0.571428571     0.357142857
     0.428571429     0.642857143     0.500000000
     0.500000000     0.571428571     0.500000000
     0.428571429     0.571428571     0.571428571
     0.428571429     0.642857143     0.642857143
     0.500000000     0.571428571     0.642857143
     0.500000000     0.642857143     0.571428571
     0.428571429     0.642857143     0.785714286
     0.500000000     0.571428571     0.785714286
     0.500000000     0.642857143     0.714285714
     0.428571429     0.571428571     0.857142857
     0.428571429     0.642857143     0.928571429
     0.500000000     0.571428571     0.928571429
     0.500000000     0.642857143     0.857142857
     0.428571429     0.714285714     0.000000000
     0.428571429     0.785714286     0.071428571
     0.500000000     0.714285714     0.071428571
     0.500000000     0.785714286     0.000000000
     0.428571429     0.714285714     0.142857143
     0.500000000     0.785714286     0.142857143
     0.428571429     0.714285714     0.285714286
     0.428571429     0.785714286     0.357142857
     0.500000000     0.714285714     0.357142857
     0.500000000     0.785714286     0.285714286
     0.428571429     0.714285714     0.428571429
     0.428571429     0.785714286     0.500000000
     0.500000000     0.714285714     0.500000000
     0.500000000     0.785714286     0.428571429
     0.428571429     0.714285714     0.571428571
     0.428571429     0.785714286     0.642857143
     0.500000000     0.785714286     0.571428571
     0.428571429     0.714285714     0.714285714
     0.428571429     0.785714286     0.785714286
     0.428571429     0.714285714     0.857142857
     0.500000000     0.714285714     0.928571429
     0.500000000     0.785714286     0.857142857
     0.428571429     0.857142857     0.000000000
     0.428571429     0.928571429     0.071428571
     0.500000000     0.857142857     0.071428571
     0.500000000     0.928571429     0.000000000
     0.428571429     0.928571429     0.214285714
     0.500000000     0.928571429     0.142857143
     0.428571429     0.857142857     0.285714286
     0.428571429     0.928571429     0.357142857
     0.500000000     0.857142857     0.357142857
     0.500000000     0.928571429     0.285714286
     0.428571429     0.928571429     0.500000000
     0.500000000     0.857142857     0.500000000
     0.500000000     0.928571429     0.428571429
     0.500000000     0.857142857     0.642857143
     0.500000000     0.928571429     0.571428571
     0.428571429     0.857142857     0.714285714
     0.500000000     0.857142857     0.785714286
     0.428571429     0.857142857     0.857142857
     0.428571429     0.928571429     0.928571429
     0.500000000     0.857142857     0.928571429
     0.500000000     0.928571429     0.857142857
     0.571428571     0.000000000     0.000000000
     0.571428571     0.071428571     0.071428571
     0.642857143     0.000000000     0.071428571
     0.642857143     0.071428571     0.000000000
     0.642857143     0.071428571     0.142857143
     0.571428571     0.071428571     0.357142857
     0.642857143     0.000000000     0.357142857
     0.642857143     0.071428571     0.285714286
     0.571428571     0.071428571     0.500000000
     0.642857143     0.071428571     0.428571429
     0.571428571     0.071428571     0.642857143
     0.642857143     0.000000000     0.642857143
     0.571428571     0.000000000     0.714285714
     0.571428571     0.071428571     0.785714286
     0.642857143     0.000000000     0.785714286
     0.642857143     0.071428571     0.714285714
     0.571428571     0.000000000     0.857142857
     0.571428571     0.071428571     0.928571429
     0.642857143     0.000000000     0.928571429
     0.571428571     0.142857143     0.000000000
     0.571428571     0.214285714     0.071428571
     0.642857143     0.214285714     0.000000000
     0.571428571     0.142857143     0.142857143
     0.571428571     0.214285714     0.214285714
     0.642857143     0.142857143     0.214285714
     0.642857143     0.214285714     0.142857143
     0.571428571     0.214285714     0.357142857
     0.642857143     0.214285714     0.285714286
     0.571428571     0.142857143     0.428571429
     0.571428571     0.214285714     0.500000000
     0.642857143     0.214285714     0.428571429
     0.571428571     0.142857143     0.571428571
     0.571428571     0.214285714     0.642857143
     0.642857143     0.214285714     0.571428571
     0.571428571     0.214285714     0.785714286
     0.642857143     0.142857143     0.785714286
     0.642857143     0.214285714     0.714285714
     0.571428571     0.142857143     0.857142857
     0.571428571     0.214285714     0.928571429
     0.642857143     0.142857143     0.928571429
     0.571428571     0.285714286     0.000000000
     0.642857143     0.285714286     0.071428571
     0.642857143     0.357142857     0.000000000
     0.571428571     0.285714286     0.142857143
     0.571428571     0.357142857     0.214285714
     0.642857143     0.285714286     0.214285714
     0.642857143     0.357142857     0.142857143
     0.571428571     0.285714286     0.285714286
     0.571428571     0.357142857     0.357142857
     0.571428571     0.285714286     0.428571429
     0.571428571     0.357142857     0.500000000
     0.642857143     0.285714286     0.500000000
     0.642857143     0.357142857     0.428571429
     0.571428571     0.357142857     0.785714286
     0.642857143     0.285714286     0.785714286
     0.642857143     0.357142857     0.714285714
     0.571428571     0.357142857     0.928571429
     0.642857143     0.357142857     0.857142857
     0.571428571     0.428571429     0.000000000
     0.642857143     0.500000000     0.000000000
     0.571428571     0.428571429     0.142857143
     0.571428571     0.500000000     0.214285714
     0.642857143     0.428571429     0.214285714
     0.642857143     0.500000000     0.142857143
     0.571428571     0.428571429     0.285714286
     0.571428571     0.500000000     0.357142857
     0.642857143     0.500000000     0.285714286
     0.571428571     0.428571429     0.428571429
     0.571428571     0.500000000     0.500000000
     0.642857143     0.428571429     0.500000000
     0.642857143     0.500000000     0.428571429
     0.571428571     0.428571429     0.571428571
     0.571428571     0.500000000     0.642857143
     0.642857143     0.428571429     0.642857143
     0.642857143     0.500000000     0.571428571
     0.642857143     0.500000000     0.714285714
     0.571428571     0.428571429     0.857142857
     0.642857143     0.571428571     0.071428571
     0.642857143     0.642857143     0.000000000
     0.571428571     0.571428571     0.142857143
     0.571428571     0.642857143     0.214285714
     0.642857143     0.571428571     0.214285714
     0.642857143     0.642857143     0.142857143
     0.571428571     0.571428571     0.285714286
     0.571428571     0.642857143     0.357142857
     0.642857143     0.571428571     0.357142857
     0.642857143     0.642857143     0.285714286
     0.571428571     0.642857143     0.500000000
     0.642857143     0.642857143     0.428571429
     0.571428571     0.642857143     0.642857143
     0.642857143     0.571428571     0.642857143
     0.571428571     0.571428571     0.714285714
     0.571428571     0.571428571     0.857142857
     0.571428571     0.642857143     0.928571429
     0.642857143     0.571428571     0.928571429
     0.642857143     0.642857143     0.857142857
     0.571428571     0.714285714     0.000000000
     0.642857143     0.714285714     0.071428571
     0.642857143     0.785714286     0.000000000
     0.571428571     0.714285714     0.142857143
     0.642857143     0.785714286     0.142857143
     0.571428571     0.714285714     0.285714286
     0.571428571     0.785714286     0.357142857
     0.642857143     0.714285714     0.357142857
     0.642857143     0.785714286     0.285714286
     0.571428571     0.714285714     0.428571429
     0.571428571     0.785714286     0.500000000
     0.642857143     0.714285714     0.500000000
     0.642857143     0.785714286     0.428571429
     0.571428571     0.714285714     0.571428571
     0.571428571     0.785714286     0.642857143
     0.642857143     0.714285714     0.642857143
     0.642857143     0.785714286     0.571428571
     0.571428571     0.714285714     0.714285714
     0.571428571     0.785714286     0.785714286
     0.571428571     0.714285714     0.857142857
     0.571428571     0.785714286     0.928571429
     0.642857143     0.785714286     0.857142857
     0.571428571     0.857142857     0.000000000
     0.571428571     0.928571429     0.071428571
     0.642857143     0.928571429     0.000000000
     0.571428571     0.857142857     0.142857143
     0.571428571     0.928571429     0.214285714
     0.642857143     0.928571429     0.142857143
     0.571428571     0.928571429     0.357142857
     0.642857143     0.857142857     0.357142857
     0.642857143     0.928571429     0.285714286
     0.571428571     0.857142857     0.428571429
     0.571428571     0.928571429     0.500000000
     0.642857143     0.857142857     0.500000000
     0.571428571     0.857142857     0.571428571
     0.642857143     0.857142857     0.642857143
     0.642857143     0.928571429     0.571428571
     0.571428571     0.857142857     0.714285714
     0.571428571     0.928571429     0.785714286
     0.571428571     0.857142857     0.857142857
     0.571428571     0.928571429     0.928571429
     0.642857143     0.857142857     0.928571429
     0.642857143     0.928571429     0.857142857
     0.714285714     0.000000000     0.000000000
     0.785714286     0.000000000     0.071428571
     0.785714286     0.071428571     0.000000000
     0.714285714     0.071428571     0.214285714
     0.785714286     0.000000000     0.214285714
     0.785714286     0.071428571     0.142857143
     0.714285714     0.000000000     0.285714286
     0.785714286     0.000000000     0.357142857
     0.714285714     0.000000000     0.428571429
     0.714285714     0.071428571     0.500000000
     0.785714286     0.000000000     0.500000000
     0.785714286     0.071428571     0.428571429
     0.714285714     0.000000000     0.571428571
     0.785714286     0.000000000     0.642857143
     0.785714286     0.071428571     0.571428571
     0.785714286     0.071428571     0.714285714
     0.714285714     0.000000000     0.857142857
     0.785714286     0.000000000     0.928571429
     0.785714286     0.071428571     0.857142857
     0.714285714     0.214285714     0.071428571
     0.785714286     0.214285714     0.000000000
     0.714285714     0.142857143     0.142857143
     0.785714286     0.142857143     0.214285714
     0.785714286     0.214285714     0.142857143
     0.714285714     0.214285714     0.357142857
     0.785714286     0.142857143     0.357142857
     0.785714286     0.214285714     0.285714286
     0.785714286     0.142857143     0.500000000
     0.785714286     0.214285714     0.428571429
     0.714285714     0.142857143     0.571428571
     0.714285714     0.214285714     0.642857143
     0.785714286     0.142857143     0.642857143
     0.785714286     0.214285714     0.571428571
     0.714285714     0.214285714     0.785714286
     0.785714286     0.142857143     0.785714286
     0.714285714     0.142857143     0.857142857
     0.714285714     0.214285714     0.928571429
     0.785714286     0.142857143     0.928571429
     0.785714286     0.214285714     0.857142857
     0.714285714     0.285714286     0.000000000
     0.714285714     0.357142857     0.071428571
     0.785714286     0.285714286     0.071428571
     0.714285714     0.285714286     0.142857143
     0.714285714     0.357142857     0.214285714
     0.785714286     0.357142857     0.142857143
     0.714285714     0.357142857     0.357142857
     0.785714286     0.285714286     0.357142857
     0.714285714     0.285714286     0.428571429
     0.785714286     0.285714286     0.500000000
     0.785714286     0.357142857     0.428571429
     0.714285714     0.285714286     0.571428571
     0.714285714     0.357142857     0.642857143
     0.714285714     0.285714286     0.714285714
     0.785714286     0.285714286     0.785714286
     0.785714286     0.357142857     0.714285714
     0.714285714     0.285714286     0.857142857
     0.714285714     0.357142857     0.928571429
     0.785714286     0.357142857     0.857142857
     0.714285714     0.428571429     0.000000000
     0.714285714     0.500000000     0.071428571
     0.785714286     0.500000000     0.000000000
     0.714285714     0.428571429     0.142857143
     0.714285714     0.500000000     0.214285714
     0.785714286     0.428571429     0.214285714
     0.785714286     0.500000000     0.142857143
     0.714285714     0.500000000     0.357142857
     0.785714286     0.500000000     0.285714286
     0.714285714     0.500000000     0.500000000
     0.785714286     0.428571429     0.500000000
     0.785714286     0.500000000     0.428571429
     0.714285714     0.428571429     0.571428571
     0.714285714     0.500000000     0.642857143
     0.785714286     0.428571429     0.642857143
     0.714285714     0.428571429     0.714285714
     0.714285714     0.500000000     0.785714286
     0.785714286     0.428571429     0.785714286
     0.714285714     0.428571429     0.857142857
     0.714285714     0.500000000     0.928571429
     0.785714286     0.428571429     0.928571429
     0.785714286     0.500000000     0.857142857
     0.714285714     0.571428571     0.000000000
     0.714285714     0.642857143     0.071428571
     0.785714286     0.571428571     0.071428571
     0.714285714     0.571428571     0.142857143
     0.785714286     0.571428571     0.214285714
     0.785714286     0.642857143     0.142857143
     0.714285714     0.642857143     0.357142857
     0.785714286     0.642857143     0.285714286
     0.714285714     0.571428571     0.428571429
     0.785714286     0.571428571     0.500000000
     0.785714286     0.642857143     0.428571429
     0.714285714     0.642857143     0.642857143
     0.785714286     0.571428571     0.642857143
     0.714285714     0.571428571     0.714285714
     0.714285714     0.642857143     0.785714286
     0.785714286     0.571428571     0.785714286
     0.714285714     0.642857143     0.928571429
     0.785714286     0.571428571     0.928571429
     0.785714286     0.642857143     0.857142857
     0.714285714     0.714285714     0.000000000
     0.714285714     0.785714286     0.071428571
     0.714285714     0.714285714     0.142857143
     0.714285714     0.785714286     0.214285714
     0.785714286     0.714285714     0.214285714
     0.714285714     0.785714286     0.357142857
     0.785714286     0.714285714     0.357142857
     0.785714286     0.785714286     0.285714286
     0.714285714     0.714285714     0.428571429
     0.785714286     0.714285714     0.500000000
     0.785714286     0.785714286     0.428571429
     0.714285714     0.714285714     0.571428571
     0.714285714     0.785714286     0.642857143
     0.785714286     0.785714286     0.571428571
     0.785714286     0.714285714     0.785714286
     0.785714286     0.785714286     0.714285714
     0.714285714     0.714285714     0.857142857
     0.714285714     0.785714286     0.928571429
     0.785714286     0.714285714     0.928571429
     0.785714286     0.785714286     0.857142857
     0.714285714     0.928571429     0.071428571
     0.785714286     0.857142857     0.071428571
     0.785714286     0.928571429     0.000000000
     0.714285714     0.857142857     0.142857143
     0.714285714     0.928571429     0.214285714
     0.785714286     0.857142857     0.214285714
     0.714285714     0.857142857     0.285714286
     0.785714286     0.928571429     0.285714286
     0.714285714     0.857142857     0.428571429
     0.714285714     0.928571429     0.500000000
     0.785714286     0.857142857     0.500000000
     0.785714286     0.928571429     0.428571429
     0.714285714     0.928571429     0.642857143
     0.785714286     0.857142857     0.642857143
     0.785714286     0.928571429     0.571428571
     0.714285714     0.928571429     0.785714286
     0.785714286     0.928571429     0.714285714
     0.714285714     0.857142857     0.857142857
     0.714285714     0.928571429     0.928571429
     0.785714286     0.857142857     0.928571429
     0.857142857     0.071428571     0.071428571
     0.928571429     0.000000000     0.071428571
     0.928571429     0.071428571     0.000000000
     0.857142857     0.000000000     0.142857143
     0.857142857     0.071428571     0.214285714
     0.928571429     0.000000000     0.214285714
     0.928571429     0.071428571     0.142857143
     0.857142857     0.000000000     0.285714286
     0.857142857     0.071428571     0.357142857
     0.928571429     0.071428571     0.285714286
     0.857142857     0.071428571     0.500000000
     0.928571429     0.071428571     0.428571429
     0.857142857     0.071428571     0.642857143
     0.928571429     0.000000000     0.642857143
     0.928571429     0.071428571     0.571428571
     0.857142857     0.000000000     0.714285714
     0.857142857     0.071428571     0.785714286
     0.928571429     0.071428571     0.714285714
     0.857142857     0.000000000     0.857142857
     0.928571429     0.071428571     0.857142857
     0.857142857     0.142857143     0.000000000
     0.857142857     0.214285714     0.071428571
     0.857142857     0.142857143     0.142857143
     0.857142857     0.214285714     0.214285714
     0.928571429     0.214285714     0.142857143
     0.857142857     0.142857143     0.285714286
     0.857142857     0.214285714     0.357142857
     0.857142857     0.142857143     0.428571429
     0.857142857     0.214285714     0.500000000
     0.928571429     0.142857143     0.500000000
     0.928571429     0.214285714     0.428571429
     0.857142857     0.142857143     0.571428571
     0.928571429     0.142857143     0.642857143
     0.928571429     0.214285714     0.571428571
     0.857142857     0.142857143     0.714285714
     0.928571429     0.142857143     0.785714286
     0.857142857     0.142857143     0.857142857
     0.857142857     0.214285714     0.928571429
     0.928571429     0.142857143     0.928571429
     0.928571429     0.214285714     0.857142857
     0.857142857     0.285714286     0.000000000
     0.928571429     0.285714286     0.071428571
     0.928571429     0.357142857     0.000000000
     0.928571429     0.357142857     0.142857143
     0.928571429     0.285714286     0.357142857
     0.928571429     0.357142857     0.285714286
     0.857142857     0.285714286     0.428571429
     0.857142857     0.357142857     0.500000000
     0.928571429     0.285714286     0.500000000
     0.928571429     0.357142857     0.428571429
     0.857142857     0.285714286     0.571428571
     0.857142857     0.357142857     0.642857143
     0.928571429     0.285714286     0.642857143
     0.928571429     0.357142857     0.571428571
     0.928571429     0.285714286     0.785714286
     0.928571429     0.357142857     0.714285714
     0.857142857     0.285714286     0.857142857
     0.928571429     0.357142857     0.857142857
     0.857142857     0.428571429     0.000000000
     0.857142857     0.500000000     0.071428571
     0.928571429     0.428571429     0.071428571
     0.857142857     0.428571429     0.142857143
     0.928571429     0.500000000     0.142857143
     0.857142857     0.428571429     0.285714286
     0.857142857     0.500000000     0.357142857
     0.928571429     0.428571429     0.357142857
     0.928571429     0.428571429     0.500000000
     0.857142857     0.428571429     0.571428571
     0.928571429     0.428571429     0.642857143
     0.928571429     0.500000000     0.571428571
     0.928571429     0.428571429     0.785714286
     0.928571429     0.500000000     0.714285714
     0.857142857     0.428571429     0.857142857
     0.928571429     0.500000000     0.857142857
     0.857142857     0.571428571     0.000000000
     0.857142857     0.642857143     0.071428571
     0.928571429     0.642857143     0.000000000
     0.857142857     0.642857143     0.214285714
     0.928571429     0.571428571     0.214285714
     0.928571429     0.642857143     0.142857143
     0.857142857     0.642857143     0.357142857
     0.928571429     0.571428571     0.357142857
     0.928571429     0.642857143     0.285714286
     0.857142857     0.571428571     0.428571429
     0.857142857     0.642857143     0.500000000
     0.928571429     0.571428571     0.500000000
     0.928571429     0.642857143     0.428571429
     0.857142857     0.642857143     0.642857143
     0.928571429     0.642857143     0.571428571
     0.857142857     0.571428571     0.714285714
     0.857142857     0.642857143     0.785714286
     0.928571429     0.642857143     0.714285714
     0.857142857     0.571428571     0.857142857
     0.857142857     0.642857143     0.928571429
     0.928571429     0.642857143     0.857142857
     0.857142857     0.785714286     0.071428571
     0.928571429     0.714285714     0.071428571
     0.928571429     0.785714286     0.000000000
     0.857142857     0.714285714     0.142857143
     0.928571429     0.714285714     0.214285714
     0.928571429     0.785714286     0.142857143
     0.857142857     0.714285714     0.285714286
     0.928571429     0.714285714     0.357142857
     0.857142857     0.785714286     0.500000000
     0.928571429     0.714285714     0.500000000
     0.928571429     0.785714286     0.428571429
     0.857142857     0.714285714     0.571428571
     0.857142857     0.785714286     0.642857143
     0.928571429     0.714285714     0.642857143
     0.928571429     0.785714286     0.571428571
     0.857142857     0.714285714     0.714285714
     0.857142857     0.785714286     0.785714286
     0.857142857     0.714285714     0.857142857
     0.857142857     0.785714286     0.928571429
     0.928571429     0.714285714     0.928571429
     0.928571429     0.785714286     0.857142857
     0.857142857     0.857142857     0.000000000
     0.928571429     0.857142857     0.071428571
     0.928571429     0.928571429     0.000000000
     0.857142857     0.928571429     0.214285714
     0.928571429     0.928571429     0.142857143
     0.857142857     0.857142857     0.285714286
     0.928571429     0.857142857     0.357142857
     0.928571429     0.928571429     0.285714286
     0.857142857     0.857142857     0.428571429
     0.857142857     0.928571429     0.500000000
     0.928571429     0.857142857     0.500000000
     0.928571429     0.928571429     0.428571429
     0.857142857     0.857142857     0.571428571
     0.857142857     0.928571429     0.642857143
     0.928571429     0.928571429     0.571428571
     0.857142857     0.857142857     0.714285714
     0.857142857     0.928571429     0.785714286
     0.928571429     0.857142857     0.785714286
     0.928571429     0.928571429     0.714285714
     0.857142857     0.857142857     0.857142857
     0.928571429     0.857142857     0.928571429