8×8×8 Sample_023 Score_0.7922 Seed_1781195144
1.0
    27.801166928     0.000000000     0.000000000
     0.000000000    27.801166928     0.000000000
     0.000000000     0.000000000    27.801166928
Al B C Cr Fe Mo Ni
41 41 41 172 74 205 1474
Direct
     0.062500000     0.000000000     0.937500000
     0.062500000     0.187500000     0.375000000
     0.062500000     0.312500000     0.250000000
     0.062500000     0.625000000     0.062500000
     0.062500000     0.812500000     0.250000000
     0.062500000     0.875000000     0.187500000
     0.000000000     0.937500000     0.437500000
     0.187500000     0.062500000     0.625000000
     0.187500000     0.375000000     0.812500000
     0.187500000     0.500000000     0.062500000
     0.187500000     0.500000000     0.187500000
     0.187500000     0.500000000     0.812500000
     0.125000000     0.750000000     0.625000000
     0.312500000     0.000000000     0.437500000
     0.312500000     0.062500000     0.625000000
     0.312500000     0.562500000     0.625000000
     0.312500000     0.937500000     0.375000000
     0.437500000     0.187500000     0.625000000
     0.437500000     0.312500000     0.625000000
     0.437500000     0.437500000     0.750000000
     0.562500000     0.125000000     0.187500000
     0.500000000     0.125000000     0.375000000
     0.500000000     0.312500000     0.187500000
     0.562500000     0.375000000     0.562500000
     0.562500000     0.875000000     0.687500000
     0.687500000     0.000000000     0.687500000
     0.625000000     0.250000000     0.000000000
     0.625000000     0.625000000     0.000000000
     0.812500000     0.000000000     0.062500000
     0.750000000     0.187500000     0.437500000
     0.750000000     0.375000000     0.875000000
     0.812500000     0.500000000     0.812500000
     0.750000000     0.562500000     0.937500000
     0.750000000     0.625000000     0.125000000
     0.812500000     0.812500000     0.000000000
     0.812500000     0.750000000     0.187500000
     0.750000000     0.875000000     0.375000000
     0.750000000     0.875000000     0.875000000
     0.937500000     0.062500000     0.000000000
     0.937500000     0.562500000     0.500000000
     0.937500000     0.625000000     0.187500000
     0.000000000     0.750000000     0.625000000
     0.062500000     0.812500000     0.625000000
     0.000000000     0.875000000     0.250000000
     0.062500000     0.875000000     0.312500000
     0.000000000     0.937500000     0.937500000
     0.125000000     0.125000000     0.375000000
     0.125000000     0.187500000     0.937500000
     0.125000000     0.312500000     0.937500000
     0.125000000     0.687500000     0.937500000
     0.250000000     0.000000000     0.375000000
     0.250000000     0.000000000     0.500000000
     0.250000000     0.062500000     0.687500000
     0.312500000     0.125000000     0.187500000
     0.250000000     0.375000000     0.250000000
     0.312500000     0.625000000     0.562500000
     0.312500000     0.687500000     0.750000000
     0.312500000     0.937500000     0.625000000
     0.437500000     0.062500000     0.500000000
     0.375000000     0.125000000     0.625000000
     0.437500000     0.375000000     0.687500000
     0.437500000     0.562500000     0.750000000
     0.375000000     0.500000000     0.875000000
     0.437500000     0.625000000     0.812500000
     0.375000000     0.750000000     0.500000000
     0.562500000     0.187500000     0.625000000
     0.562500000     0.250000000     0.187500000
     0.562500000     0.375000000     0.437500000
     0.500000000     0.625000000     0.375000000
     0.500000000     0.875000000     0.125000000
     0.625000000     0.000000000     0.000000000
     0.625000000     0.375000000     0.625000000
     0.625000000     0.562500000     0.312500000
     0.687500000     0.625000000     0.437500000
     0.812500000     0.062500000     0.625000000
     0.812500000     0.750000000     0.687500000
     0.812500000     0.937500000     0.125000000
     0.875000000     0.312500000     0.187500000
     0.937500000     0.250000000     0.562500000
     0.875000000     0.500000000     0.000000000
     0.937500000     0.625000000     0.687500000
     0.937500000     0.812500000     0.000000000
     0.062500000     0.375000000     0.812500000
     0.062500000     0.562500000     0.750000000
     0.000000000     0.750000000     0.750000000
     0.125000000     0.062500000     0.937500000
     0.125000000     0.187500000     0.312500000
     0.187500000     0.437500000     0.875000000
     0.125000000     0.812500000     0.812500000
     0.250000000     0.250000000     0.875000000
     0.312500000     0.687500000     0.125000000
     0.250000000     0.750000000     0.875000000
     0.312500000     0.875000000     0.062500000
     0.437500000     0.187500000     0.875000000
     0.437500000     0.312500000     0.375000000
     0.375000000     0.562500000     0.187500000
     0.375000000     0.500000000     0.375000000
     0.437500000     0.812500000     0.250000000
     0.562500000     0.000000000     0.437500000
     0.500000000     0.250000000     0.125000000
     0.500000000     0.312500000     0.562500000
     0.500000000     0.812500000     0.187500000
     0.562500000     0.750000000     0.562500000
     0.625000000     0.062500000     0.062500000
     0.687500000     0.125000000     0.562500000
     0.687500000     0.562500000     0.750000000
     0.625000000     0.625000000     0.375000000
     0.687500000     0.750000000     0.437500000
     0.625000000     0.937500000     0.312500000
     0.687500000     0.875000000     0.562500000
     0.812500000     0.375000000     0.062500000
     0.750000000     0.437500000     0.437500000
     0.812500000     0.625000000     0.062500000
     0.812500000     0.625000000     0.187500000
     0.750000000     0.625000000     0.875000000
     0.750000000     0.812500000     0.562500000
     0.812500000     0.812500000     0.750000000
     0.750000000     0.937500000     0.062500000
     0.750000000     0.937500000     0.437500000
     0.750000000     0.937500000     0.687500000
     0.937500000     0.187500000     0.375000000
     0.937500000     0.250000000     0.187500000
     0.937500000     0.937500000     0.125000000
     0.000000000     0.000000000     0.375000000
     0.000000000     0.000000000     0.625000000
     0.000000000     0.062500000     0.812500000
     0.000000000     0.187500000     0.062500000
     0.000000000     0.125000000     0.250000000
     0.062500000     0.187500000     0.250000000
     0.062500000     0.187500000     0.625000000
     0.062500000     0.187500000     0.875000000
     0.062500000     0.250000000     0.062500000
     0.062500000     0.312500000     0.000000000
     0.000000000     0.250000000     0.125000000
     0.062500000     0.312500000     0.750000000
     0.000000000     0.437500000     0.937500000
     0.062500000     0.562500000     0.000000000
     0.000000000     0.562500000     0.187500000
     0.000000000     0.500000000     0.250000000
     0.062500000     0.500000000     0.687500000
     0.000000000     0.625000000     0.500000000
     0.000000000     0.812500000     0.062500000
     0.000000000     0.750000000     0.375000000
     0.000000000     0.812500000     0.937500000
     0.062500000     0.812500000     0.875000000
     0.062500000     0.875000000     0.562500000
     0.125000000     0.000000000     0.000000000
     0.125000000     0.062500000     0.187500000
     0.187500000     0.062500000     0.125000000
     0.125000000     0.000000000     0.500000000
     0.125000000     0.062500000     0.562500000
     0.125000000     0.187500000     0.062500000
     0.187500000     0.187500000     0.500000000
     0.187500000     0.250000000     0.312500000
     0.125000000     0.250000000     0.625000000
     0.187500000     0.437500000     0.000000000
     0.187500000     0.437500000     0.250000000
     0.125000000     0.375000000     0.375000000
     0.187500000     0.375000000     0.562500000
     0.187500000     0.437500000     0.750000000
     0.125000000     0.375000000     0.875000000
     0.125000000     0.562500000     0.187500000
     0.125000000     0.500000000     0.250000000
     0.125000000     0.562500000     0.687500000
     0.187500000     0.625000000     0.187500000
     0.187500000     0.625000000     0.312500000
     0.187500000     0.687500000     0.250000000
     0.125000000     0.812500000     0.437500000
     0.187500000     0.812500000     0.750000000
     0.125000000     0.875000000     0.000000000
     0.250000000     0.000000000     0.125000000
     0.312500000     0.062500000     0.125000000
     0.250000000     0.000000000     0.250000000
     0.250000000     0.062500000     0.312500000
     0.312500000     0.062500000     0.375000000
     0.312500000     0.062500000     0.750000000
     0.250000000     0.062500000     0.937500000
     0.312500000     0.062500000     0.875000000
     0.250000000     0.187500000     0.437500000
     0.250000000     0.187500000     0.562500000
     0.312500000     0.125000000     0.812500000
     0.312500000     0.312500000     0.000000000
     0.312500000     0.437500000     0.250000000
     0.250000000     0.375000000     0.500000000
     0.312500000     0.375000000     0.562500000
     0.312500000     0.562500000     0.375000000
     0.250000000     0.500000000     0.500000000
     0.312500000     0.625000000     0.312500000
     0.312500000     0.687500000     0.500000000
     0.250000000     0.625000000     0.750000000
     0.250000000     0.750000000     0.000000000
     0.250000000     0.750000000     0.500000000
     0.250000000     0.937500000     0.062500000
     0.250000000     0.875000000     0.125000000
     0.312500000     0.937500000     0.875000000
     0.375000000     0.000000000     0.000000000
     0.437500000     0.000000000     0.562500000
     0.437500000     0.187500000     0.000000000
     0.437500000     0.125000000     0.562500000
     0.437500000     0.250000000     0.187500000
     0.437500000     0.312500000     0.250000000
     0.375000000     0.312500000     0.437500000
     0.375000000     0.312500000     0.937500000
     0.437500000     0.375000000     0.437500000
     0.437500000     0.375000000     0.812500000
     0.375000000     0.437500000     0.937500000
     0.437500000     0.562500000     0.125000000
     0.437500000     0.562500000     0.875000000
     0.375000000     0.937500000     0.187500000
     0.375000000     0.875000000     0.750000000
     0.500000000     0.000000000     0.875000000
     0.500000000     0.125000000     0.750000000
     0.500000000     0.125000000     0.875000000
     0.562500000     0.250000000     0.312500000
     0.562500000     0.312500000     0.500000000
     0.500000000     0.250000000     0.625000000
     0.500000000     0.312500000     0.812500000
     0.562500000     0.437500000     0.125000000
     0.500000000     0.375000000     0.500000000
     0.500000000     0.500000000     0.125000000
     0.562500000     0.562500000     0.250000000
     0.500000000     0.562500000     0.437500000
     0.562500000     0.562500000     0.750000000
     0.500000000     0.687500000     0.312500000
     0.500000000     0.625000000     0.625000000
     0.500000000     0.687500000     0.687500000
     0.562500000     0.625000000     0.687500000
     0.562500000     0.750000000     0.437500000
     0.562500000     0.812500000     0.375000000
     0.562500000     0.812500000     0.875000000
     0.500000000     0.937500000     0.437500000
     0.687500000     0.062500000     0.250000000
     0.625000000     0.000000000     0.375000000
     0.625000000     0.125000000     0.000000000
     0.625000000     0.187500000     0.187500000
     0.687500000     0.187500000     0.125000000
     0.687500000     0.125000000     0.437500000
     0.625000000     0.187500000     0.562500000
     0.687500000     0.125000000     0.812500000
     0.687500000     0.187500000     0.750000000
     0.687500000     0.250000000     0.687500000
     0.687500000     0.437500000     0.250000000
     0.687500000     0.375000000     0.562500000
     0.625000000     0.562500000     0.062500000
     0.687500000     0.562500000     0.375000000
     0.625000000     0.687500000     0.312500000
     0.687500000     0.687500000     0.375000000
     0.687500000     0.625000000     0.562500000
     0.687500000     0.687500000     0.500000000
     0.625000000     0.687500000     0.687500000
     0.625000000     0.625000000     0.750000000
     0.625000000     0.687500000     0.812500000
     0.625000000     0.750000000     0.500000000
     0.625000000     0.812500000     0.562500000
     0.687500000     0.812500000     0.625000000
     0.687500000     0.750000000     0.812500000
     0.687500000     0.812500000     0.875000000
     0.750000000     0.062500000     0.187500000
     0.750000000     0.000000000     0.875000000
     0.812500000     0.125000000     0.687500000
     0.812500000     0.312500000     0.000000000
     0.812500000     0.250000000     0.187500000
     0.750000000     0.437500000     0.937500000
     0.750000000     0.562500000     0.062500000
     0.812500000     0.562500000     0.125000000
     0.750000000     0.562500000     0.312500000
     0.812500000     0.500000000     0.937500000
     0.812500000     0.625000000     0.437500000
     0.750000000     0.687500000     0.937500000
     0.812500000     0.812500000     0.500000000
     0.812500000     0.937500000     0.000000000
     0.750000000     0.937500000     0.187500000
     0.812500000     0.875000000     0.687500000
     0.875000000     0.062500000     0.062500000
     0.937500000     0.000000000     0.312500000
     0.875000000     0.000000000     0.500000000
     0.875000000     0.125000000     0.000000000
     0.875000000     0.187500000     0.187500000
     0.937500000     0.187500000     0.125000000
     0.937500000     0.187500000     0.625000000
     0.875000000     0.250000000     0.250000000
     0.937500000     0.250000000     0.312500000
     0.875000000     0.312500000     0.562500000
     0.875000000     0.375000000     0.250000000
     0.875000000     0.437500000     0.312500000
     0.937500000     0.375000000     0.437500000
     0.937500000     0.437500000     0.625000000
     0.937500000     0.375000000     0.937500000
     0.937500000     0.562500000     0.250000000
     0.875000000     0.562500000     0.687500000
     0.937500000     0.687500000     0.000000000
     0.937500000     0.750000000     0.312500000
     0.875000000     0.812500000     0.687500000
     0.875000000     0.937500000     0.312500000
     0.875000000     0.937500000     0.562500000
     0.062500000     0.125000000     0.062500000
     0.000000000     0.250000000     0.000000000
     0.000000000     0.312500000     0.062500000
     0.062500000     0.312500000     0.125000000
     0.000000000     0.437500000     0.562500000
     0.062500000     0.812500000     0.500000000
     0.062500000     0.937500000     0.125000000
     0.000000000     0.875000000     0.625000000
     0.000000000     0.875000000     0.750000000
     0.187500000     0.125000000     0.312500000
     0.125000000     0.187500000     0.812500000
     0.125000000     0.312500000     0.062500000
     0.187500000     0.375000000     0.687500000
     0.125000000     0.562500000     0.562500000
     0.187500000     0.500000000     0.687500000
     0.187500000     0.562500000     0.625000000
     0.187500000     0.625000000     0.937500000
     0.125000000     0.750000000     0.375000000
     0.187500000     0.812500000     0.375000000
     0.187500000     0.750000000     0.937500000
     0.187500000     0.812500000     0.875000000
     0.250000000     0.125000000     0.375000000
     0.250000000     0.437500000     0.187500000
     0.312500000     0.437500000     0.375000000
     0.312500000     0.562500000     0.250000000
     0.312500000     0.625000000     0.437500000
     0.312500000     0.750000000     0.062500000
     0.312500000     0.750000000     0.312500000
     0.312500000     0.750000000     0.812500000
     0.312500000     0.750000000     0.937500000
     0.250000000     0.937500000     0.937500000
     0.437500000     0.062500000     0.000000000
     0.375000000     0.062500000     0.312500000
     0.437500000     0.125000000     0.687500000
     0.375000000     0.312500000     0.187500000
     0.375000000     0.250000000     0.500000000
     0.375000000     0.437500000     0.437500000
     0.437500000     0.562500000     0.000000000
     0.375000000     0.500000000     0.625000000
     0.437500000     0.500000000     0.687500000
     0.437500000     0.937500000     0.125000000
     0.375000000     0.937500000     0.812500000
     0.562500000     0.000000000     0.312500000
     0.500000000     0.125000000     0.125000000
     0.562500000     0.187500000     0.250000000
     0.562500000     0.125000000     0.937500000
     0.562500000     0.312500000     0.750000000
     0.500000000     0.375000000     0.625000000
     0.562500000     0.437500000     0.750000000
     0.562500000     0.500000000     0.937500000
     0.562500000     0.750000000     0.687500000
     0.625000000     0.062500000     0.437500000
     0.687500000     0.062500000     0.500000000
     0.625000000     0.500000000     0.375000000
     0.625000000     0.750000000     0.250000000
     0.625000000     0.750000000     0.375000000
     0.625000000     0.875000000     0.250000000
     0.750000000     0.000000000     0.125000000
     0.750000000     0.000000000     0.375000000
     0.750000000     0.000000000     0.500000000
     0.750000000     0.187500000     0.062500000
     0.750000000     0.125000000     0.250000000
     0.812500000     0.312500000     0.250000000
     0.750000000     0.437500000     0.687500000
     0.750000000     0.750000000     0.000000000
     0.750000000     0.812500000     0.812500000
     0.750000000     0.875000000     0.000000000
     0.812500000     0.937500000     0.875000000
     0.937500000     0.312500000     0.375000000
     0.937500000     0.312500000     0.875000000
     0.875000000     0.375000000     0.375000000
     0.875000000     0.437500000     0.937500000
     0.937500000     0.687500000     0.625000000
     0.937500000     0.812500000     0.750000000
     0.000000000     0.000000000     0.125000000
     0.000000000     0.062500000     0.562500000
     0.062500000     0.000000000     0.687500000
     0.000000000     0.125000000     0.500000000
     0.062500000     0.187500000     0.500000000
     0.062500000     0.125000000     0.687500000
     0.000000000     0.187500000     0.812500000
     0.062500000     0.125000000     0.937500000
     0.000000000     0.312500000     0.937500000
     0.062500000     0.437500000     0.000000000
     0.062500000     0.375000000     0.312500000
     0.000000000     0.375000000     0.375000000
     0.062500000     0.437500000     0.375000000
     0.062500000     0.375000000     0.687500000
     0.000000000     0.375000000     0.750000000
     0.062500000     0.500000000     0.312500000
     0.000000000     0.562500000     0.437500000
     0.062500000     0.562500000     0.375000000
     0.062500000     0.562500000     0.625000000
     0.062500000     0.687500000     0.000000000
     0.062500000     0.687500000     0.250000000
     0.000000000     0.687500000     0.687500000
     0.062500000     0.625000000     0.937500000
     0.000000000     0.812500000     0.687500000
     0.062500000     0.875000000     0.812500000
     0.062500000     0.937500000     0.750000000
     0.062500000     0.875000000     0.937500000
     0.125000000     0.000000000     0.375000000
     0.187500000     0.000000000     0.562500000
     0.125000000     0.187500000     0.187500000
     0.125000000     0.125000000     0.750000000
     0.187500000     0.125000000     0.937500000
     0.125000000     0.250000000     0.000000000
     0.187500000     0.250000000     0.187500000
     0.187500000     0.312500000     0.125000000
     0.187500000     0.250000000     0.562500000
     0.125000000     0.375000000     0.250000000
     0.125000000     0.375000000     0.625000000
     0.187500000     0.437500000     0.625000000
     0.125000000     0.437500000     0.937500000
     0.187500000     0.500000000     0.312500000
     0.187500000     0.500000000     0.437500000
     0.125000000     0.625000000     0.000000000
     0.125000000     0.687500000     0.062500000
     0.125000000     0.625000000     0.250000000
     0.187500000     0.625000000     0.437500000
     0.187500000     0.687500000     0.375000000
     0.187500000     0.750000000     0.687500000
     0.187500000     0.812500000     0.625000000
     0.125000000     0.812500000     0.937500000
     0.187500000     0.937500000     0.000000000
     0.187500000     0.937500000     0.625000000
     0.187500000     0.875000000     0.812500000
     0.250000000     0.062500000     0.187500000
     0.312500000     0.000000000     0.187500000
     0.250000000     0.062500000     0.437500000
     0.250000000     0.187500000     0.312500000
     0.312500000     0.125000000     0.562500000
     0.312500000     0.125000000     0.937500000
     0.250000000     0.312500000     0.062500000
     0.250000000     0.250000000     0.750000000
     0.250000000     0.375000000     0.125000000
     0.312500000     0.375000000     0.437500000
     0.312500000     0.500000000     0.562500000
     0.250000000     0.687500000     0.062500000
     0.312500000     0.625000000     0.062500000
     0.250000000     0.625000000     0.250000000
     0.250000000     0.812500000     0.187500000
     0.312500000     0.750000000     0.437500000
     0.312500000     0.812500000     0.875000000
     0.250000000     0.875000000     0.000000000
     0.312500000     0.937500000     0.000000000
     0.312500000     0.937500000     0.125000000
     0.375000000     0.000000000     0.250000000
     0.375000000     0.000000000     0.750000000
     0.437500000     0.062500000     0.750000000
     0.437500000     0.125000000     0.312500000
     0.375000000     0.125000000     0.500000000
     0.375000000     0.250000000     0.000000000
     0.437500000     0.250000000     0.062500000
     0.375000000     0.250000000     0.625000000
     0.375000000     0.250000000     0.875000000
     0.437500000     0.250000000     0.937500000
     0.375000000     0.437500000     0.312500000
     0.375000000     0.375000000     0.375000000
     0.437500000     0.375000000     0.562500000
     0.437500000     0.437500000     0.500000000
     0.437500000     0.500000000     0.062500000
     0.375000000     0.562500000     0.437500000
     0.375000000     0.500000000     0.750000000
     0.375000000     0.687500000     0.062500000
     0.437500000     0.687500000     0.125000000
     0.437500000     0.625000000     0.562500000
     0.437500000     0.687500000     0.500000000
     0.437500000     0.750000000     0.062500000
     0.375000000     0.812500000     0.437500000
     0.375000000     0.812500000     0.937500000
     0.375000000     0.875000000     0.000000000
     0.437500000     0.875000000     0.312500000
     0.437500000     0.937500000     0.625000000
     0.500000000     0.000000000     0.125000000
     0.500000000     0.062500000     0.312500000
     0.500000000     0.062500000     0.562500000
     0.562500000     0.062500000     0.625000000
     0.562500000     0.062500000     0.750000000
     0.500000000     0.187500000     0.187500000
     0.562500000     0.125000000     0.562500000
     0.500000000     0.250000000     0.375000000
     0.500000000     0.250000000     0.500000000
     0.500000000     0.375000000     0.375000000
     0.562500000     0.375000000     0.812500000
     0.562500000     0.500000000     0.187500000
     0.562500000     0.562500000     0.125000000
     0.500000000     0.500000000     0.250000000
     0.562500000     0.500000000     0.562500000
     0.500000000     0.500000000     0.875000000
     0.562500000     0.562500000     0.875000000
     0.562500000     0.750000000     0.062500000
     0.562500000     0.750000000     0.187500000
     0.500000000     0.750000000     0.500000000
     0.562500000     0.812500000     0.500000000
     0.500000000     0.812500000     0.937500000
     0.500000000     0.875000000     0.000000000
     0.500000000     0.937500000     0.312500000
     0.500000000     0.875000000     0.375000000
     0.562500000     0.875000000     0.562500000
     0.500000000     0.875000000     0.625000000
     0.687500000     0.062500000     0.000000000
     0.625000000     0.000000000     0.625000000
     0.687500000     0.187500000     0.250000000
     0.625000000     0.187500000     0.687500000
     0.625000000     0.125000000     0.875000000
     0.625000000     0.187500000     0.937500000
     0.687500000     0.125000000     0.937500000
     0.687500000     0.312500000     0.375000000
     0.625000000     0.312500000     0.687500000
     0.625000000     0.375000000     0.000000000
     0.687500000     0.375000000     0.187500000
     0.625000000     0.437500000     0.687500000
     0.625000000     0.500000000     0.750000000
     0.625000000     0.625000000     0.250000000
     0.687500000     0.625000000     0.812500000
     0.687500000     0.750000000     0.187500000
     0.625000000     0.812500000     0.312500000
     0.625000000     0.750000000     0.625000000
     0.625000000     0.875000000     0.000000000
     0.625000000     0.875000000     0.500000000
     0.687500000     0.937500000     0.500000000
     0.750000000     0.000000000     0.000000000
     0.750000000     0.062500000     0.062500000
     0.750000000     0.062500000     0.937500000
     0.812500000     0.125000000     0.062500000
     0.812500000     0.187500000     0.000000000
     0.812500000     0.125000000     0.437500000
     0.812500000     0.125000000     0.562500000
     0.812500000     0.187500000     0.750000000
     0.750000000     0.250000000     0.125000000
     0.812500000     0.250000000     0.437500000
     0.812500000     0.312500000     0.500000000
     0.812500000     0.312500000     0.750000000
     0.750000000     0.312500000     0.937500000
     0.812500000     0.250000000     0.937500000
     0.750000000     0.375000000     0.500000000
     0.750000000     0.437500000     0.562500000
     0.812500000     0.437500000     0.500000000
     0.812500000     0.437500000     0.750000000
     0.750000000     0.562500000     0.187500000
     0.812500000     0.500000000     0.187500000
     0.750000000     0.500000000     0.875000000
     0.750000000     0.625000000     0.000000000
     0.812500000     0.625000000     0.687500000
     0.812500000     0.625000000     0.937500000
     0.812500000     0.687500000     0.875000000
     0.750000000     0.812500000     0.312500000
     0.750000000     0.812500000     0.687500000
     0.812500000     0.812500000     0.625000000
     0.812500000     0.937500000     0.500000000
     0.812500000     0.875000000     0.937500000
     0.875000000     0.000000000     0.000000000
     0.937500000     0.000000000     0.187500000
     0.875000000     0.000000000     0.250000000
     0.875000000     0.062500000     0.312500000
     0.875000000     0.062500000     0.687500000
     0.937500000     0.062500000     0.625000000
     0.875000000     0.062500000     0.812500000
     0.937500000     0.062500000     0.750000000
     0.875000000     0.000000000     0.875000000
     0.875000000     0.187500000     0.437500000
     0.875000000     0.125000000     0.625000000
     0.875000000     0.187500000     0.687500000
     0.875000000     0.187500000     0.937500000
     0.937500000     0.312500000     0.125000000
     0.937500000     0.312500000     0.250000000
     0.937500000     0.250000000     0.437500000
     0.937500000     0.250000000     0.812500000
     0.937500000     0.437500000     0.250000000
     0.937500000     0.375000000     0.562500000
     0.937500000     0.375000000     0.812500000
     0.875000000     0.562500000     0.062500000
     0.875000000     0.562500000     0.312500000
     0.875000000     0.500000000     0.625000000
     0.875000000     0.625000000     0.125000000
     0.875000000     0.687500000     0.812500000
     0.875000000     0.750000000     0.000000000
     0.875000000     0.937500000     0.187500000
     0.000000000     0.000000000     0.000000000
     0.000000000     0.062500000     0.062500000
     0.062500000     0.000000000     0.062500000
     0.062500000     0.062500000     0.000000000
     0.000000000     0.062500000     0.187500000
     0.062500000     0.000000000     0.187500000
     0.062500000     0.062500000     0.125000000
     0.000000000     0.000000000     0.250000000
     0.000000000     0.062500000     0.312500000
     0.062500000     0.000000000     0.312500000
     0.062500000     0.062500000     0.250000000
     0.000000000     0.062500000     0.437500000
     0.062500000     0.000000000     0.437500000
     0.062500000     0.062500000     0.375000000
     0.000000000     0.000000000     0.500000000
     0.062500000     0.000000000     0.562500000
     0.062500000     0.062500000     0.500000000
     0.000000000     0.062500000     0.687500000
     0.062500000     0.062500000     0.625000000
     0.000000000     0.000000000     0.750000000
     0.062500000     0.000000000     0.812500000
     0.062500000     0.062500000     0.750000000
     0.000000000     0.000000000     0.875000000
     0.000000000     0.062500000     0.937500000
     0.062500000     0.062500000     0.875000000
     0.000000000     0.125000000     0.000000000
     0.062500000     0.187500000     0.000000000
     0.000000000     0.125000000     0.125000000
     0.000000000     0.187500000     0.187500000
     0.062500000     0.125000000     0.187500000
     0.062500000     0.187500000     0.125000000
     0.000000000     0.187500000     0.312500000
     0.062500000     0.125000000     0.312500000
     0.000000000     0.125000000     0.375000000
     0.000000000     0.187500000     0.437500000
     0.062500000     0.125000000     0.437500000
     0.000000000     0.187500000     0.562500000
     0.062500000     0.125000000     0.562500000
     0.000000000     0.125000000     0.625000000
     0.000000000     0.187500000     0.687500000
     0.000000000     0.125000000     0.750000000
     0.062500000     0.125000000     0.812500000
     0.062500000     0.187500000     0.750000000
     0.000000000     0.125000000     0.875000000
     0.000000000     0.187500000     0.937500000
     0.000000000     0.312500000     0.187500000
     0.062500000     0.250000000     0.187500000
     0.000000000     0.250000000     0.250000000
     0.000000000     0.312500000     0.312500000
     0.062500000     0.250000000     0.312500000
     0.000000000     0.250000000     0.375000000
     0.000000000     0.312500000     0.437500000
     0.062500000     0.250000000     0.437500000
     0.062500000     0.312500000     0.375000000
     0.000000000     0.250000000     0.500000000
     0.000000000     0.312500000     0.562500000
     0.062500000     0.250000000     0.562500000
     0.062500000     0.312500000     0.500000000
     0.000000000     0.250000000     0.625000000
     0.000000000     0.312500000     0.687500000
     0.062500000     0.250000000     0.687500000
     0.062500000     0.312500000     0.625000000
     0.000000000     0.250000000     0.750000000
     0.000000000     0.312500000     0.812500000
     0.062500000     0.250000000     0.812500000
     0.000000000     0.250000000     0.875000000
     0.062500000     0.250000000     0.937500000
     0.062500000     0.312500000     0.875000000
     0.000000000     0.375000000     0.000000000
     0.000000000     0.437500000     0.062500000
     0.062500000     0.375000000     0.062500000
     0.000000000     0.375000000     0.125000000
     0.000000000     0.437500000     0.187500000
     0.062500000     0.375000000     0.187500000
     0.062500000     0.437500000     0.125000000
     0.000000000     0.375000000     0.250000000
     0.000000000     0.437500000     0.312500000
     0.062500000     0.437500000     0.250000000
     0.000000000     0.437500000     0.437500000
     0.062500000     0.375000000     0.437500000
     0.000000000     0.375000000     0.500000000
     0.062500000     0.375000000     0.562500000
     0.062500000     0.437500000     0.500000000
     0.000000000     0.375000000     0.625000000
     0.000000000     0.437500000     0.687500000
     0.062500000     0.437500000     0.625000000
     0.000000000     0.437500000     0.812500000
     0.062500000     0.437500000     0.750000000
     0.000000000     0.375000000     0.875000000
     0.062500000     0.375000000     0.937500000
     0.062500000     0.437500000     0.875000000
     0.000000000     0.500000000     0.000000000
     0.000000000     0.562500000     0.062500000
     0.062500000     0.500000000     0.062500000
     0.000000000     0.500000000     0.125000000
     0.062500000     0.500000000     0.187500000
     0.062500000     0.562500000     0.125000000
     0.000000000     0.562500000     0.312500000
     0.062500000     0.562500000     0.250000000
     0.000000000     0.500000000     0.375000000
     0.062500000     0.500000000     0.437500000
     0.000000000     0.500000000     0.500000000
     0.000000000     0.562500000     0.562500000
     0.062500000     0.500000000     0.562500000
     0.062500000     0.562500000     0.500000000
     0.000000000     0.500000000     0.625000000
     0.000000000     0.562500000     0.687500000
     0.000000000     0.500000000     0.750000000
     0.000000000     0.562500000     0.812500000
     0.062500000     0.500000000     0.812500000
     0.000000000     0.500000000     0.875000000
     0.000000000     0.562500000     0.937500000
     0.062500000     0.500000000     0.937500000
     0.062500000     0.562500000     0.875000000
     0.000000000     0.625000000     0.000000000
     0.000000000     0.687500000     0.062500000
     0.000000000     0.625000000     0.125000000
     0.000000000     0.687500000     0.187500000
     0.062500000     0.625000000     0.187500000
     0.062500000     0.687500000     0.125000000
     0.000000000     0.625000000     0.250000000
     0.000000000     0.687500000     0.312500000
     0.062500000     0.625000000     0.312500000
     0.000000000     0.625000000     0.375000000
     0.000000000     0.687500000     0.437500000
     0.062500000     0.625000000     0.437500000
     0.062500000     0.687500000     0.375000000
     0.000000000     0.687500000     0.562500000
     0.062500000     0.625000000     0.562500000
     0.062500000     0.687500000     0.500000000
     0.000000000     0.625000000     0.625000000
     0.062500000     0.625000000     0.687500000
     0.062500000     0.687500000     0.625000000
     0.000000000     0.625000000     0.750000000
     0.000000000     0.687500000     0.812500000
     0.062500000     0.625000000     0.812500000
     0.062500000     0.687500000     0.750000000
     0.000000000     0.625000000     0.875000000
     0.000000000     0.687500000     0.937500000
     0.062500000     0.687500000     0.875000000
     0.000000000     0.750000000     0.000000000
     0.062500000     0.750000000     0.062500000
     0.062500000     0.812500000     0.000000000
     0.000000000     0.750000000     0.125000000
     0.000000000     0.812500000     0.187500000
     0.062500000     0.750000000     0.187500000
     0.062500000     0.812500000     0.125000000
     0.000000000     0.750000000     0.250000000
     0.000000000     0.812500000     0.312500000
     0.062500000     0.750000000     0.312500000
     0.000000000     0.812500000     0.437500000
     0.062500000     0.750000000     0.437500000
     0.062500000     0.812500000     0.375000000
     0.000000000     0.750000000     0.500000000
     0.000000000     0.812500000     0.562500000
     0.062500000     0.750000000     0.562500000
     0.062500000     0.750000000     0.687500000
     0.000000000     0.812500000     0.812500000
     0.062500000     0.750000000     0.812500000
     0.062500000     0.812500000     0.750000000
     0.000000000     0.750000000     0.875000000
     0.062500000     0.750000000     0.937500000
     0.000000000     0.875000000     0.000000000
     0.000000000     0.937500000     0.062500000
     0.062500000     0.875000000     0.062500000
     0.062500000     0.937500000     0.000000000
     0.000000000     0.875000000     0.125000000
     0.000000000     0.937500000     0.187500000
     0.000000000     0.937500000     0.312500000
     0.062500000     0.937500000     0.250000000
     0.000000000     0.875000000     0.375000000
     0.062500000     0.875000000     0.437500000
     0.062500000     0.937500000     0.375000000
     0.000000000     0.875000000     0.500000000
     0.000000000     0.937500000     0.562500000
     0.062500000     0.937500000     0.500000000
     0.000000000     0.937500000     0.687500000
     0.062500000     0.875000000     0.687500000
     0.062500000     0.937500000     0.625000000
     0.000000000     0.937500000     0.812500000
     0.000000000     0.875000000     0.875000000
     0.062500000     0.937500000     0.875000000
     0.125000000     0.062500000     0.062500000
     0.187500000     0.000000000     0.062500000
     0.187500000     0.062500000     0.000000000
     0.125000000     0.000000000     0.125000000
     0.187500000     0.000000000     0.187500000
     0.125000000     0.000000000     0.250000000
     0.125000000     0.062500000     0.312500000
     0.187500000     0.000000000     0.312500000
     0.187500000     0.062500000     0.250000000
     0.125000000     0.062500000     0.437500000
     0.187500000     0.000000000     0.437500000
     0.187500000     0.062500000     0.375000000
     0.187500000     0.062500000     0.500000000
     0.125000000     0.000000000     0.625000000
     0.125000000     0.062500000     0.687500000
     0.187500000     0.000000000     0.687500000
     0.125000000     0.000000000     0.750000000
     0.125000000     0.062500000     0.812500000
     0.187500000     0.000000000     0.812500000
     0.187500000     0.062500000     0.750000000
     0.125000000     0.000000000     0.875000000
     0.187500000     0.000000000     0.937500000
     0.187500000     0.062500000     0.875000000
     0.125000000     0.125000000     0.000000000
     0.187500000     0.125000000     0.062500000
     0.187500000     0.187500000     0.000000000
     0.125000000     0.125000000     0.125000000
     0.187500000     0.125000000     0.187500000
     0.187500000     0.187500000     0.125000000
     0.125000000     0.125000000     0.250000000
     0.187500000     0.187500000     0.250000000
     0.125000000     0.187500000     0.437500000
     0.187500000     0.125000000     0.437500000
     0.187500000     0.187500000     0.375000000
     0.125000000     0.125000000     0.500000000
     0.125000000     0.187500000     0.562500000
     0.187500000     0.125000000     0.562500000
     0.125000000     0.125000000     0.625000000
     0.125000000     0.187500000     0.687500000
     0.187500000     0.125000000     0.687500000
     0.187500000     0.187500000     0.625000000
     0.187500000     0.125000000     0.812500000
     0.187500000     0.187500000     0.750000000
     0.125000000     0.125000000     0.875000000
     0.187500000     0.187500000     0.875000000
     0.187500000     0.250000000     0.062500000
     0.187500000     0.312500000     0.000000000
     0.125000000     0.250000000     0.125000000
     0.125000000     0.312500000     0.187500000
     0.125000000     0.250000000     0.250000000
     0.125000000     0.312500000     0.312500000
     0.187500000     0.312500000     0.250000000
     0.125000000     0.250000000     0.375000000
     0.125000000     0.312500000     0.437500000
     0.187500000     0.250000000     0.437500000
     0.187500000     0.312500000     0.375000000
     0.125000000     0.250000000     0.500000000
     0.125000000     0.312500000     0.562500000
     0.187500000     0.312500000     0.500000000
     0.125000000     0.312500000     0.687500000
     0.187500000     0.250000000     0.687500000
     0.187500000     0.312500000     0.625000000
     0.125000000     0.250000000     0.750000000
     0.125000000     0.312500000     0.812500000
     0.187500000     0.250000000     0.812500000
     0.187500000     0.312500000     0.750000000
     0.125000000     0.250000000     0.875000000
     0.187500000     0.250000000     0.937500000
     0.187500000     0.312500000     0.875000000
     0.125000000     0.375000000     0.000000000
     0.125000000     0.437500000     0.062500000
     0.187500000     0.375000000     0.062500000
     0.125000000     0.375000000     0.125000000
     0.125000000     0.437500000     0.187500000
     0.187500000     0.375000000     0.187500000
     0.187500000     0.437500000     0.125000000
     0.125000000     0.437500000     0.312500000
     0.187500000     0.375000000     0.312500000
     0.125000000     0.437500000     0.437500000
     0.187500000     0.375000000     0.437500000
     0.187500000     0.437500000     0.375000000
     0.125000000     0.375000000     0.500000000
     0.125000000     0.437500000     0.562500000
     0.187500000     0.437500000     0.500000000
     0.125000000     0.437500000     0.687500000
     0.125000000     0.375000000     0.750000000
     0.125000000     0.437500000     0.812500000
     0.187500000     0.375000000     0.937500000
     0.125000000     0.500000000     0.000000000
     0.125000000     0.562500000     0.062500000
     0.187500000     0.562500000     0.000000000
     0.125000000     0.500000000     0.125000000
     0.187500000     0.562500000     0.125000000
     0.125000000     0.562500000     0.312500000
     0.187500000     0.562500000     0.250000000
     0.125000000     0.500000000     0.375000000
     0.125000000     0.562500000     0.437500000
     0.187500000     0.562500000     0.375000000
     0.125000000     0.500000000     0.500000000
     0.187500000     0.500000000     0.562500000
     0.187500000     0.562500000     0.500000000
     0.125000000     0.500000000     0.625000000
     0.125000000     0.500000000     0.750000000
     0.125000000     0.562500000     0.812500000
     0.187500000     0.562500000     0.750000000
     0.125000000     0.500000000     0.875000000
     0.125000000     0.562500000     0.937500000
     0.187500000     0.500000000     0.937500000
     0.187500000     0.562500000     0.875000000
     0.187500000     0.625000000     0.062500000
     0.187500000     0.687500000     0.000000000
     0.125000000     0.625000000     0.125000000
     0.125000000     0.687500000     0.187500000
     0.187500000     0.687500000     0.125000000
     0.125000000     0.687500000     0.312500000
     0.125000000     0.625000000     0.375000000
     0.125000000     0.687500000     0.437500000
     0.125000000     0.625000000     0.500000000
     0.125000000     0.687500000     0.562500000
     0.187500000     0.625000000     0.562500000
     0.187500000     0.687500000     0.500000000
     0.125000000     0.625000000     0.625000000
     0.125000000     0.687500000     0.687500000
     0.187500000     0.625000000     0.687500000
     0.187500000     0.687500000     0.625000000
     0.125000000     0.625000000     0.750000000
     0.125000000     0.687500000     0.812500000
     0.187500000     0.625000000     0.812500000
     0.187500000     0.687500000     0.750000000
     0.125000000     0.625000000     0.875000000
     0.187500000     0.687500000     0.875000000
     0.125000000     0.750000000     0.000000000
     0.125000000     0.812500000     0.062500000
     0.187500000     0.750000000     0.062500000
     0.187500000     0.812500000     0.000000000
     0.125000000     0.750000000     0.125000000
     0.125000000     0.812500000     0.187500000
     0.187500000     0.750000000     0.187500000
     0.187500000     0.812500000     0.125000000
     0.125000000     0.750000000     0.250000000
     0.125000000     0.812500000     0.312500000
     0.187500000     0.750000000     0.312500000
     0.187500000     0.812500000     0.250000000
     0.187500000     0.750000000     0.437500000
     0.125000000     0.750000000     0.500000000
     0.125000000     0.812500000     0.562500000
     0.187500000     0.750000000     0.562500000
     0.187500000     0.812500000     0.500000000
     0.125000000     0.812500000     0.687500000
     0.125000000     0.750000000     0.750000000
     0.187500000     0.750000000     0.812500000
     0.125000000     0.750000000     0.875000000
     0.125000000     0.937500000     0.062500000
     0.187500000     0.875000000     0.062500000
     0.125000000     0.875000000     0.125000000
     0.125000000     0.937500000     0.187500000
     0.187500000     0.875000000     0.187500000
     0.187500000     0.937500000     0.125000000
     0.125000000     0.875000000     0.250000000
     0.125000000     0.937500000     0.312500000
     0.187500000     0.875000000     0.312500000
     0.187500000     0.937500000     0.250000000
     0.125000000     0.875000000     0.375000000
     0.125000000     0.937500000     0.437500000
     0.187500000     0.875000000     0.437500000
     0.187500000     0.937500000     0.375000000
     0.125000000     0.875000000     0.500000000
     0.125000000     0.937500000     0.562500000
     0.187500000     0.875000000     0.562500000
     0.187500000     0.937500000     0.500000000
     0.125000000     0.875000000     0.625000000
     0.125000000     0.937500000     0.687500000
     0.187500000     0.875000000     0.687500000
     0.125000000     0.875000000     0.750000000
     0.125000000     0.937500000     0.812500000
     0.187500000     0.937500000     0.750000000
     0.125000000     0.875000000     0.875000000
     0.125000000     0.937500000     0.937500000
     0.187500000     0.875000000     0.937500000
     0.187500000     0.937500000     0.875000000
     0.250000000     0.000000000     0.000000000
     0.250000000     0.062500000     0.062500000
     0.312500000     0.000000000     0.062500000
     0.312500000     0.062500000     0.000000000
     0.312500000     0.000000000     0.312500000
     0.312500000     0.062500000     0.250000000
     0.250000000     0.062500000     0.562500000
     0.312500000     0.000000000     0.562500000
     0.312500000     0.062500000     0.500000000
     0.250000000     0.000000000     0.625000000
     0.312500000     0.000000000     0.687500000
     0.250000000     0.000000000     0.750000000
     0.250000000     0.062500000     0.812500000
     0.312500000     0.000000000     0.812500000
     0.250000000     0.000000000     0.875000000
     0.312500000     0.000000000     0.937500000
     0.250000000     0.125000000     0.000000000
     0.250000000     0.187500000     0.062500000
     0.312500000     0.125000000     0.062500000
     0.312500000     0.187500000     0.000000000
     0.250000000     0.125000000     0.125000000
     0.250000000     0.187500000     0.187500000
     0.312500000     0.187500000     0.125000000
     0.250000000     0.125000000     0.250000000
     0.312500000     0.125000000     0.312500000
     0.312500000     0.187500000     0.250000000
     0.312500000     0.125000000     0.437500000
     0.312500000     0.187500000     0.375000000
     0.250000000     0.125000000     0.500000000
     0.312500000     0.187500000     0.500000000
     0.250000000     0.125000000     0.625000000
     0.250000000     0.187500000     0.687500000
     0.312500000     0.125000000     0.687500000
     0.312500000     0.187500000     0.625000000
     0.250000000     0.125000000     0.750000000
     0.250000000     0.187500000     0.812500000
     0.312500000     0.187500000     0.750000000
     0.250000000     0.125000000     0.875000000
     0.250000000     0.187500000     0.937500000
     0.312500000     0.187500000     0.875000000
     0.250000000     0.250000000     0.000000000
     0.312500000     0.250000000     0.062500000
     0.250000000     0.250000000     0.125000000
     0.250000000     0.312500000     0.187500000
     0.312500000     0.250000000     0.187500000
     0.312500000     0.312500000     0.125000000
     0.250000000     0.250000000     0.250000000
     0.250000000     0.312500000     0.312500000
     0.312500000     0.250000000     0.312500000
     0.312500000     0.312500000     0.250000000
     0.250000000     0.250000000     0.375000000
     0.250000000     0.312500000     0.437500000
     0.312500000     0.250000000     0.437500000
     0.312500000     0.312500000     0.375000000
     0.250000000     0.250000000     0.500000000
     0.250000000     0.312500000     0.562500000
     0.312500000     0.250000000     0.562500000
     0.312500000     0.312500000     0.500000000
     0.250000000     0.250000000     0.625000000
     0.250000000     0.312500000     0.687500000
     0.312500000     0.250000000     0.687500000
     0.312500000     0.312500000     0.625000000
     0.250000000     0.312500000     0.812500000
     0.312500000     0.250000000     0.812500000
     0.312500000     0.312500000     0.750000000
     0.250000000     0.312500000     0.937500000
     0.312500000     0.250000000     0.937500000
     0.312500000     0.312500000     0.875000000
     0.250000000     0.375000000     0.000000000
     0.250000000     0.437500000     0.062500000
     0.312500000     0.375000000     0.062500000
     0.312500000     0.437500000     0.000000000
     0.312500000     0.375000000     0.187500000
     0.312500000     0.437500000     0.125000000
     0.250000000     0.437500000     0.312500000
     0.312500000     0.375000000     0.312500000
     0.250000000     0.375000000     0.375000000
     0.250000000     0.437500000     0.437500000
     0.250000000     0.437500000     0.562500000
     0.312500000     0.437500000     0.500000000
     0.250000000     0.375000000     0.625000000
     0.250000000     0.437500000     0.687500000
     0.312500000     0.375000000     0.687500000
     0.312500000     0.437500000     0.625000000
     0.250000000     0.375000000     0.750000000
     0.250000000     0.437500000     0.812500000
     0.312500000     0.375000000     0.812500000
     0.312500000     0.437500000     0.750000000
     0.250000000     0.375000000     0.875000000
     0.250000000     0.437500000     0.937500000
     0.312500000     0.375000000     0.937500000
     0.312500000     0.437500000     0.875000000
     0.250000000     0.500000000     0.000000000
     0.250000000     0.562500000     0.062500000
     0.312500000     0.500000000     0.062500000
     0.312500000     0.562500000     0.000000000
     0.250000000     0.500000000     0.125000000
     0.250000000     0.562500000     0.187500000
     0.312500000     0.500000000     0.187500000
     0.312500000     0.562500000     0.125000000
     0.250000000     0.500000000     0.250000000
     0.250000000     0.562500000     0.312500000
     0.312500000     0.500000000     0.312500000
     0.250000000     0.500000000     0.375000000
     0.250000000     0.562500000     0.437500000
     0.312500000     0.500000000     0.437500000
     0.250000000     0.562500000     0.562500000
     0.312500000     0.562500000     0.500000000
     0.250000000     0.500000000     0.625000000
     0.250000000     0.562500000     0.687500000
     0.312500000     0.500000000     0.687500000
     0.250000000     0.500000000     0.750000000
     0.250000000     0.562500000     0.812500000
     0.312500000     0.500000000     0.812500000
     0.312500000     0.562500000     0.750000000
     0.250000000     0.500000000     0.875000000
     0.250000000     0.562500000     0.937500000
     0.312500000     0.500000000     0.937500000
     0.312500000     0.562500000     0.875000000
     0.250000000     0.625000000     0.000000000
     0.312500000     0.687500000     0.000000000
     0.250000000     0.625000000     0.125000000
     0.250000000     0.687500000     0.187500000
     0.312500000     0.625000000     0.187500000
     0.250000000     0.687500000     0.312500000
     0.312500000     0.687500000     0.250000000
     0.250000000     0.625000000     0.375000000
     0.250000000     0.687500000     0.437500000
     0.312500000     0.687500000     0.375000000
     0.250000000     0.625000000     0.500000000
     0.250000000     0.687500000     0.562500000
     0.250000000     0.625000000     0.625000000
     0.250000000     0.687500000     0.687500000
     0.312500000     0.625000000     0.687500000
     0.312500000     0.687500000     0.625000000
     0.250000000     0.687500000     0.812500000
     0.312500000     0.625000000     0.812500000
     0.250000000     0.625000000     0.875000000
     0.250000000     0.687500000     0.937500000
     0.312500000     0.625000000     0.937500000
     0.312500000     0.687500000     0.875000000
     0.250000000     0.812500000     0.062500000
     0.312500000     0.812500000     0.000000000
     0.250000000     0.750000000     0.125000000
     0.312500000     0.750000000     0.187500000
     0.312500000     0.812500000     0.125000000
     0.250000000     0.750000000     0.250000000
     0.250000000     0.812500000     0.312500000
     0.312500000     0.812500000     0.250000000
     0.250000000     0.750000000     0.375000000
     0.250000000     0.812500000     0.437500000
     0.312500000     0.812500000     0.375000000
     0.250000000     0.812500000     0.562500000
     0.312500000     0.750000000     0.562500000
     0.312500000     0.812500000     0.500000000
     0.250000000     0.750000000     0.625000000
     0.250000000     0.812500000     0.687500000
     0.312500000     0.750000000     0.687500000
     0.312500000     0.812500000     0.625000000
     0.250000000     0.750000000     0.750000000
     0.250000000     0.812500000     0.812500000
     0.312500000     0.812500000     0.750000000
     0.250000000     0.812500000     0.937500000
     0.250000000     0.937500000     0.187500000
     0.312500000     0.875000000     0.187500000
     0.250000000     0.875000000     0.250000000
     0.250000000     0.937500000     0.312500000
     0.312500000     0.875000000     0.312500000
     0.312500000     0.937500000     0.250000000
     0.250000000     0.875000000     0.375000000
     0.250000000     0.937500000     0.437500000
     0.312500000     0.875000000     0.437500000
     0.250000000     0.875000000     0.500000000
     0.250000000     0.937500000     0.562500000
     0.312500000     0.875000000     0.562500000
     0.312500000     0.937500000     0.500000000
     0.250000000     0.875000000     0.625000000
     0.250000000     0.937500000     0.687500000
     0.312500000     0.875000000     0.687500000
     0.250000000     0.875000000     0.750000000
     0.250000000     0.937500000     0.812500000
     0.312500000     0.875000000     0.812500000
     0.312500000     0.937500000     0.750000000
     0.250000000     0.875000000     0.875000000
     0.312500000     0.875000000     0.937500000
     0.375000000     0.062500000     0.062500000
     0.437500000     0.000000000     0.062500000
     0.375000000     0.000000000     0.125000000
     0.375000000     0.062500000     0.187500000
     0.437500000     0.000000000     0.187500000
     0.437500000     0.062500000     0.125000000
     0.437500000     0.000000000     0.312500000
     0.437500000     0.062500000     0.250000000
     0.375000000     0.000000000     0.375000000
     0.375000000     0.062500000     0.437500000
     0.437500000     0.000000000     0.437500000
     0.437500000     0.062500000     0.375000000
     0.375000000     0.000000000     0.500000000
     0.375000000     0.062500000     0.562500000
     0.375000000     0.000000000     0.625000000
     0.375000000     0.062500000     0.687500000
     0.437500000     0.000000000     0.687500000
     0.437500000     0.062500000     0.625000000
     0.375000000     0.062500000     0.812500000
     0.437500000     0.000000000     0.812500000
     0.375000000     0.000000000     0.875000000
     0.375000000     0.062500000     0.937500000
     0.437500000     0.000000000     0.937500000
     0.437500000     0.062500000     0.875000000
     0.375000000     0.125000000     0.000000000
     0.375000000     0.187500000     0.062500000
     0.437500000     0.125000000     0.062500000
     0.375000000     0.125000000     0.125000000
     0.375000000     0.187500000     0.187500000
     0.437500000     0.125000000     0.187500000
     0.437500000     0.187500000     0.125000000
     0.375000000     0.125000000     0.250000000
     0.375000000     0.187500000     0.312500000
     0.437500000     0.187500000     0.250000000
     0.375000000     0.125000000     0.375000000
     0.375000000     0.187500000     0.437500000
     0.437500000     0.125000000     0.437500000
     0.437500000     0.187500000     0.375000000
     0.375000000     0.187500000     0.562500000
     0.437500000     0.187500000     0.500000000
     0.375000000     0.187500000     0.687500000
     0.375000000     0.125000000     0.750000000
     0.375000000     0.187500000     0.812500000
     0.437500000     0.125000000     0.812500000
     0.437500000     0.187500000     0.750000000
     0.375000000     0.125000000     0.875000000
     0.375000000     0.187500000     0.937500000
     0.437500000     0.125000000     0.937500000
     0.375000000     0.312500000     0.062500000
     0.437500000     0.312500000     0.000000000
     0.375000000     0.250000000     0.125000000
     0.437500000     0.312500000     0.125000000
     0.375000000     0.250000000     0.250000000
     0.375000000     0.312500000     0.312500000
     0.437500000     0.250000000     0.312500000
     0.375000000     0.250000000     0.375000000
     0.437500000     0.250000000     0.437500000
     0.375000000     0.312500000     0.562500000
     0.437500000     0.250000000     0.562500000
     0.437500000     0.312500000     0.500000000
     0.375000000     0.312500000     0.687500000
     0.437500000     0.250000000     0.687500000
     0.375000000     0.250000000     0.750000000
     0.375000000     0.312500000     0.812500000
     0.437500000     0.250000000     0.812500000
     0.437500000     0.312500000     0.750000000
     0.437500000     0.312500000     0.875000000
     0.375000000     0.375000000     0.000000000
     0.375000000     0.437500000     0.062500000
     0.437500000     0.375000000     0.062500000
     0.437500000     0.437500000     0.000000000
     0.375000000     0.375000000     0.125000000
     0.375000000     0.437500000     0.187500000
     0.437500000     0.375000000     0.187500000
     0.437500000     0.437500000     0.125000000
     0.375000000     0.375000000     0.250000000
     0.437500000     0.375000000     0.312500000
     0.437500000     0.437500000     0.250000000
     0.437500000     0.437500000     0.375000000
     0.375000000     0.375000000     0.500000000
     0.375000000     0.437500000     0.562500000
     0.375000000     0.375000000     0.625000000
     0.375000000     0.437500000     0.687500000
     0.437500000     0.437500000     0.625000000
     0.375000000     0.375000000     0.750000000
     0.375000000     0.437500000     0.812500000
     0.375000000     0.375000000     0.875000000
     0.437500000     0.375000000     0.937500000
     0.437500000     0.437500000     0.875000000
     0.375000000     0.500000000     0.000000000
     0.375000000     0.562500000     0.062500000
     0.375000000     0.500000000     0.125000000
     0.437500000     0.500000000     0.187500000
     0.375000000     0.500000000     0.250000000
     0.375000000     0.562500000     0.312500000
     0.437500000     0.500000000     0.312500000
     0.437500000     0.562500000     0.250000000
     0.437500000     0.500000000     0.437500000
     0.437500000     0.562500000     0.375000000
     0.375000000     0.500000000     0.500000000
     0.375000000     0.562500000     0.562500000
     0.437500000     0.500000000     0.562500000
     0.437500000     0.562500000     0.500000000
     0.375000000     0.562500000     0.687500000
     0.437500000     0.562500000     0.625000000
     0.375000000     0.562500000     0.812500000
     0.437500000     0.500000000     0.812500000
     0.375000000     0.562500000     0.937500000
     0.437500000     0.500000000     0.937500000
     0.375000000     0.625000000     0.000000000
     0.437500000     0.625000000     0.062500000
     0.437500000     0.687500000     0.000000000
     0.375000000     0.625000000     0.125000000
     0.375000000     0.687500000     0.187500000
     0.437500000     0.625000000     0.187500000
     0.375000000     0.625000000     0.250000000
     0.375000000     0.687500000     0.312500000
     0.437500000     0.625000000     0.312500000
     0.437500000     0.687500000     0.250000000
     0.375000000     0.625000000     0.375000000
     0.375000000     0.687500000     0.437500000
     0.437500000     0.625000000     0.437500000
     0.437500000     0.687500000     0.375000000
     0.375000000     0.625000000     0.500000000
     0.375000000     0.687500000     0.562500000
     0.375000000     0.625000000     0.625000000
     0.375000000     0.687500000     0.687500000
     0.437500000     0.625000000     0.687500000
     0.437500000     0.687500000     0.625000000
     0.375000000     0.625000000     0.750000000
     0.375000000     0.687500000     0.812500000
     0.437500000     0.687500000     0.750000000
     0.375000000     0.625000000     0.875000000
     0.375000000     0.687500000     0.937500000
     0.437500000     0.625000000     0.937500000
     0.437500000     0.687500000     0.875000000
     0.375000000     0.750000000     0.000000000
     0.375000000     0.812500000     0.062500000
     0.437500000     0.812500000     0.000000000
     0.375000000     0.750000000     0.125000000
     0.375000000     0.812500000     0.187500000
     0.437500000     0.750000000     0.187500000
     0.437500000     0.812500000     0.125000000
     0.375000000     0.750000000     0.250000000
     0.375000000     0.812500000     0.312500000
     0.437500000     0.750000000     0.312500000
     0.375000000     0.750000000     0.375000000
     0.437500000     0.750000000     0.437500000
     0.437500000     0.812500000     0.375000000
     0.375000000     0.812500000     0.562500000
     0.437500000     0.750000000     0.562500000
     0.437500000     0.812500000     0.500000000
     0.375000000     0.750000000     0.625000000
     0.375000000     0.812500000     0.687500000
     0.437500000     0.750000000     0.687500000
     0.437500000     0.812500000     0.625000000
     0.375000000     0.750000000     0.750000000
     0.375000000     0.812500000     0.812500000
     0.437500000     0.750000000     0.812500000
     0.437500000     0.812500000     0.750000000
     0.375000000     0.750000000     0.875000000
     0.437500000     0.750000000     0.937500000
     0.437500000     0.812500000     0.875000000
     0.375000000     0.937500000     0.062500000
     0.437500000     0.875000000     0.062500000
     0.437500000     0.937500000     0.000000000
     0.375000000     0.875000000     0.125000000
     0.437500000     0.875000000     0.187500000
     0.375000000     0.875000000     0.250000000
     0.375000000     0.937500000     0.312500000
     0.437500000     0.937500000     0.250000000
     0.375000000     0.875000000     0.375000000
     0.375000000     0.937500000     0.437500000
     0.437500000     0.875000000     0.437500000
     0.437500000     0.937500000     0.375000000
     0.375000000     0.875000000     0.500000000
     0.375000000     0.937500000     0.562500000
     0.437500000     0.875000000     0.562500000
     0.437500000     0.937500000     0.500000000
     0.375000000     0.875000000     0.625000000
     0.375000000     0.937500000     0.687500000
     0.437500000     0.875000000     0.687500000
     0.437500000     0.875000000     0.812500000
     0.437500000     0.937500000     0.750000000
     0.375000000     0.875000000     0.875000000
     0.375000000     0.937500000     0.937500000
     0.437500000     0.875000000     0.937500000
     0.437500000     0.937500000     0.875000000
     0.500000000     0.000000000     0.000000000
     0.500000000     0.062500000     0.062500000
     0.562500000     0.000000000     0.062500000
     0.562500000     0.062500000     0.000000000
     0.500000000     0.062500000     0.187500000
     0.562500000     0.000000000     0.187500000
     0.562500000     0.062500000     0.125000000
     0.500000000     0.000000000     0.250000000
     0.562500000     0.062500000     0.250000000
     0.500000000     0.000000000     0.375000000
     0.500000000     0.062500000     0.437500000
     0.562500000     0.062500000     0.375000000
     0.500000000     0.000000000     0.500000000
     0.562500000     0.000000000     0.562500000
     0.562500000     0.062500000     0.500000000
     0.500000000     0.000000000     0.625000000
     0.500000000     0.062500000     0.687500000
     0.562500000     0.000000000     0.687500000
     0.500000000     0.000000000     0.750000000
     0.500000000     0.062500000     0.812500000
     0.562500000     0.000000000     0.812500000
     0.500000000     0.062500000     0.937500000
     0.562500000     0.000000000     0.937500000
     0.562500000     0.062500000     0.875000000
     0.500000000     0.125000000     0.000000000
     0.500000000     0.187500000     0.062500000
     0.562500000     0.125000000     0.062500000
     0.562500000     0.187500000     0.000000000
     0.562500000     0.187500000     0.125000000
     0.500000000     0.125000000     0.250000000
     0.500000000     0.187500000     0.312500000
     0.562500000     0.125000000     0.312500000
     0.500000000     0.187500000     0.437500000
     0.562500000     0.125000000     0.437500000
     0.562500000     0.187500000     0.375000000
     0.500000000     0.125000000     0.500000000
     0.500000000     0.187500000     0.562500000
     0.562500000     0.187500000     0.500000000
     0.500000000     0.125000000     0.625000000
     0.500000000     0.187500000     0.687500000
     0.562500000     0.125000000     0.687500000
     0.500000000     0.187500000     0.812500000
     0.562500000     0.125000000     0.812500000
     0.562500000     0.187500000     0.750000000
     0.500000000     0.187500000     0.937500000
     0.562500000     0.187500000     0.875000000
     0.500000000     0.250000000     0.000000000
     0.500000000     0.312500000     0.062500000
     0.562500000     0.250000000     0.062500000
     0.562500000     0.312500000     0.000000000
     0.562500000     0.312500000     0.125000000
     0.500000000     0.250000000     0.250000000
     0.500000000     0.312500000     0.312500000
     0.562500000     0.312500000     0.250000000
     0.500000000     0.312500000     0.437500000
     0.562500000     0.250000000     0.437500000
     0.562500000     0.312500000     0.375000000
     0.562500000     0.250000000     0.562500000
     0.500000000     0.312500000     0.687500000
     0.562500000     0.250000000     0.687500000
     0.562500000     0.312500000     0.625000000
     0.500000000     0.250000000     0.750000000
     0.562500000     0.250000000     0.812500000
     0.500000000     0.250000000     0.875000000
     0.500000000     0.312500000     0.937500000
     0.562500000     0.250000000     0.937500000
     0.562500000     0.312500000     0.875000000
     0.500000000     0.375000000     0.000000000
     0.500000000     0.437500000     0.062500000
     0.562500000     0.375000000     0.062500000
     0.562500000     0.437500000     0.000000000
     0.500000000     0.375000000     0.125000000
     0.500000000     0.437500000     0.187500000
     0.562500000     0.375000000     0.187500000
     0.500000000     0.375000000     0.250000000
     0.500000000     0.437500000     0.312500000
     0.562500000     0.375000000     0.312500000
     0.562500000     0.437500000     0.250000000
     0.500000000     0.437500000     0.437500000
     0.562500000     0.437500000     0.375000000
     0.500000000     0.437500000     0.562500000
     0.562500000     0.437500000     0.500000000
     0.500000000     0.437500000     0.687500000
     0.562500000     0.375000000     0.687500000
     0.562500000     0.437500000     0.625000000
     0.500000000     0.375000000     0.750000000
     0.500000000     0.437500000     0.812500000
     0.500000000     0.375000000     0.875000000
     0.500000000     0.437500000     0.937500000
     0.562500000     0.375000000     0.937500000
     0.562500000     0.437500000     0.875000000
     0.500000000     0.500000000     0.000000000
     0.500000000     0.562500000     0.062500000
     0.562500000     0.500000000     0.062500000
     0.562500000     0.562500000     0.000000000
     0.500000000     0.562500000     0.187500000
     0.500000000     0.562500000     0.312500000
     0.562500000     0.500000000     0.312500000
     0.500000000     0.500000000     0.375000000
     0.562500000     0.500000000     0.437500000
     0.562500000     0.562500000     0.375000000
     0.500000000     0.500000000     0.500000000
     0.500000000     0.562500000     0.562500000
     0.562500000     0.562500000     0.500000000
     0.500000000     0.500000000     0.625000000
     0.500000000     0.562500000     0.687500000
     0.562500000     0.500000000     0.687500000
     0.562500000     0.562500000     0.625000000
     0.500000000     0.500000000     0.750000000
     0.500000000     0.562500000     0.812500000
     0.562500000     0.500000000     0.812500000
     0.500000000     0.562500000     0.937500000
     0.500000000     0.625000000     0.000000000
     0.500000000     0.687500000     0.062500000
     0.562500000     0.625000000     0.062500000
     0.562500000     0.687500000     0.000000000
     0.500000000     0.625000000     0.125000000
     0.500000000     0.687500000     0.187500000
     0.562500000     0.625000000     0.187500000
     0.562500000     0.687500000     0.125000000
     0.500000000     0.625000000     0.250000000
     0.562500000     0.625000000     0.312500000
     0.562500000     0.687500000     0.250000000
     0.500000000     0.687500000     0.437500000
     0.562500000     0.625000000     0.437500000
     0.562500000     0.687500000     0.375000000
     0.500000000     0.625000000     0.500000000
     0.500000000     0.687500000     0.562500000
     0.562500000     0.625000000     0.562500000
     0.562500000     0.687500000     0.500000000
     0.562500000     0.687500000     0.625000000
     0.500000000     0.625000000     0.750000000
     0.500000000     0.687500000     0.812500000
     0.562500000     0.625000000     0.812500000
     0.562500000     0.687500000     0.750000000
     0.500000000     0.625000000     0.875000000
     0.500000000     0.687500000     0.937500000
     0.562500000     0.625000000     0.937500000
     0.562500000     0.687500000     0.875000000
     0.500000000     0.750000000     0.000000000
     0.500000000     0.812500000     0.062500000
     0.562500000     0.812500000     0.000000000
     0.500000000     0.750000000     0.125000000
     0.562500000     0.812500000     0.125000000
     0.500000000     0.750000000     0.250000000
     0.500000000     0.812500000     0.312500000
     0.562500000     0.750000000     0.312500000
     0.562500000     0.812500000     0.250000000
     0.500000000     0.750000000     0.375000000
     0.500000000     0.812500000     0.437500000
     0.500000000     0.812500000     0.562500000
     0.500000000     0.750000000     0.625000000
     0.500000000     0.812500000     0.687500000
     0.562500000     0.812500000     0.625000000
     0.500000000     0.750000000     0.750000000
     0.500000000     0.812500000     0.812500000
     0.562500000     0.750000000     0.812500000
     0.562500000     0.812500000     0.750000000
     0.500000000     0.750000000     0.875000000
     0.562500000     0.750000000     0.937500000
     0.500000000     0.937500000     0.062500000
     0.562500000     0.875000000     0.062500000
     0.562500000     0.937500000     0.000000000
     0.500000000     0.937500000     0.187500000
     0.562500000     0.875000000     0.187500000
     0.562500000     0.937500000     0.125000000
     0.500000000     0.875000000     0.250000000
     0.562500000     0.875000000     0.312500000
     0.562500000     0.937500000     0.250000000
     0.562500000     0.875000000     0.437500000
     0.562500000     0.937500000     0.375000000
     0.500000000     0.875000000     0.500000000
     0.500000000     0.937500000     0.562500000
     0.562500000     0.937500000     0.500000000
     0.500000000     0.937500000     0.687500000
     0.562500000     0.937500000     0.625000000
     0.500000000     0.875000000     0.750000000
     0.500000000     0.937500000     0.812500000
     0.562500000     0.875000000     0.812500000
     0.562500000     0.937500000     0.750000000
     0.500000000     0.875000000     0.875000000
     0.500000000     0.937500000     0.937500000
     0.562500000     0.875000000     0.937500000
     0.562500000     0.937500000     0.875000000
     0.687500000     0.000000000     0.062500000
     0.625000000     0.000000000     0.125000000
     0.625000000     0.062500000     0.187500000
     0.687500000     0.000000000     0.187500000
     0.687500000     0.062500000     0.125000000
     0.625000000     0.000000000     0.250000000
     0.625000000     0.062500000     0.312500000
     0.687500000     0.000000000     0.312500000
     0.687500000     0.000000000     0.437500000
     0.687500000     0.062500000     0.375000000
     0.625000000     0.000000000     0.500000000
     0.625000000     0.062500000     0.562500000
     0.687500000     0.000000000     0.562500000
     0.625000000     0.062500000     0.687500000
     0.687500000     0.062500000     0.625000000
     0.625000000     0.000000000     0.750000000
     0.625000000     0.062500000     0.812500000
     0.687500000     0.000000000     0.812500000
     0.687500000     0.062500000     0.750000000
     0.625000000     0.000000000     0.875000000
     0.625000000     0.062500000     0.937500000
     0.687500000     0.000000000     0.937500000
     0.687500000     0.062500000     0.875000000
     0.625000000     0.187500000     0.062500000
     0.687500000     0.125000000     0.062500000
     0.687500000     0.187500000     0.000000000
     0.625000000     0.125000000     0.125000000
     0.687500000     0.125000000     0.187500000
     0.625000000     0.125000000     0.250000000
     0.625000000     0.187500000     0.312500000
     0.687500000     0.125000000     0.312500000
     0.625000000     0.125000000     0.375000000
     0.625000000     0.187500000     0.437500000
     0.687500000     0.187500000     0.375000000
     0.625000000     0.125000000     0.500000000
     0.687500000     0.187500000     0.500000000
     0.625000000     0.125000000     0.625000000
     0.687500000     0.125000000     0.687500000
     0.687500000     0.187500000     0.625000000
     0.625000000     0.125000000     0.750000000
     0.625000000     0.187500000     0.812500000
     0.687500000     0.187500000     0.875000000
     0.625000000     0.312500000     0.062500000
     0.687500000     0.250000000     0.062500000
     0.687500000     0.312500000     0.000000000
     0.625000000     0.250000000     0.125000000
     0.625000000     0.312500000     0.187500000
     0.687500000     0.250000000     0.187500000
     0.687500000     0.312500000     0.125000000
     0.625000000     0.250000000     0.250000000
     0.625000000     0.312500000     0.312500000
     0.687500000     0.250000000     0.312500000
     0.687500000     0.312500000     0.250000000
     0.625000000     0.250000000     0.375000000
     0.625000000     0.312500000     0.437500000
     0.687500000     0.250000000     0.437500000
     0.625000000     0.250000000     0.500000000
     0.625000000     0.312500000     0.562500000
     0.687500000     0.250000000     0.562500000
     0.687500000     0.312500000     0.500000000
     0.625000000     0.250000000     0.625000000
     0.687500000     0.312500000     0.625000000
     0.625000000     0.250000000     0.750000000
     0.625000000     0.312500000     0.812500000
     0.687500000     0.250000000     0.812500000
     0.687500000     0.312500000     0.750000000
     0.625000000     0.250000000     0.875000000
     0.625000000     0.312500000     0.937500000
     0.687500000     0.250000000     0.937500000
     0.687500000     0.312500000     0.875000000
     0.625000000     0.437500000     0.062500000
     0.687500000     0.375000000     0.062500000
     0.687500000     0.437500000     0.000000000
     0.625000000     0.375000000     0.125000000
     0.625000000     0.437500000     0.187500000
     0.687500000     0.437500000     0.125000000
     0.625000000     0.375000000     0.250000000
     0.625000000     0.437500000     0.312500000
     0.687500000     0.375000000     0.312500000
     0.625000000     0.375000000     0.375000000
     0.625000000     0.437500000     0.437500000
     0.687500000     0.375000000     0.437500000
     0.687500000     0.437500000     0.375000000
     0.625000000     0.375000000     0.500000000
     0.625000000     0.437500000     0.562500000
     0.687500000     0.437500000     0.500000000
     0.687500000     0.375000000     0.687500000
     0.687500000     0.437500000     0.625000000
     0.625000000     0.375000000     0.750000000
     0.625000000     0.437500000     0.812500000
     0.687500000     0.375000000     0.812500000
     0.687500000     0.437500000     0.750000000
     0.625000000     0.375000000     0.875000000
     0.625000000     0.437500000     0.937500000
     0.687500000     0.375000000     0.937500000
     0.687500000     0.437500000     0.875000000
     0.625000000     0.500000000     0.000000000
     0.687500000     0.500000000     0.062500000
     0.687500000     0.562500000     0.000000000
     0.625000000     0.500000000     0.125000000
     0.625000000     0.562500000     0.187500000
     0.687500000     0.500000000     0.187500000
     0.687500000     0.562500000     0.125000000
     0.625000000     0.500000000     0.250000000
     0.687500000     0.500000000     0.312500000
     0.687500000     0.562500000     0.250000000
     0.625000000     0.562500000     0.437500000
     0.687500000     0.500000000     0.437500000
     0.625000000     0.500000000     0.500000000
     0.625000000     0.562500000     0.562500000
     0.687500000     0.500000000     0.562500000
     0.687500000     0.562500000     0.500000000
     0.625000000     0.500000000     0.625000000
     0.625000000     0.562500000     0.687500000
     0.687500000     0.500000000     0.687500000
     0.687500000     0.562500000     0.625000000
     0.625000000     0.562500000     0.812500000
     0.687500000     0.500000000     0.812500000
     0.625000000     0.500000000     0.875000000
     0.625000000     0.562500000     0.937500000
     0.687500000     0.500000000     0.937500000
     0.687500000     0.562500000     0.875000000
     0.625000000     0.687500000     0.062500000
     0.687500000     0.625000000     0.062500000
     0.687500000     0.687500000     0.000000000
     0.625000000     0.625000000     0.125000000
     0.625000000     0.687500000     0.187500000
     0.687500000     0.625000000     0.187500000
     0.687500000     0.687500000     0.125000000
     0.687500000     0.625000000     0.312500000
     0.687500000     0.687500000     0.250000000
     0.625000000     0.687500000     0.437500000
     0.625000000     0.625000000     0.500000000
     0.625000000     0.687500000     0.562500000
     0.625000000     0.625000000     0.625000000
     0.687500000     0.625000000     0.687500000
     0.687500000     0.687500000     0.625000000
     0.687500000     0.687500000     0.750000000
     0.625000000     0.625000000     0.875000000
     0.625000000     0.687500000     0.937500000
     0.687500000     0.625000000     0.937500000
     0.687500000     0.687500000     0.875000000
     0.625000000     0.750000000     0.000000000
     0.625000000     0.812500000     0.062500000
     0.687500000     0.750000000     0.062500000
     0.687500000     0.812500000     0.000000000
     0.625000000     0.750000000     0.125000000
     0.625000000     0.812500000     0.187500000
     0.687500000     0.812500000     0.125000000
     0.687500000     0.750000000     0.312500000
     0.687500000     0.812500000     0.250000000
     0.625000000     0.812500000     0.437500000
     0.687500000     0.812500000     0.375000000
     0.687500000     0.750000000     0.562500000
     0.687500000     0.812500000     0.500000000
     0.625000000     0.812500000     0.687500000
     0.687500000     0.750000000     0.687500000
     0.625000000     0.750000000     0.750000000
     0.625000000     0.812500000     0.812500000
     0.687500000     0.812500000     0.750000000
     0.625000000     0.750000000     0.875000000
     0.625000000     0.812500000     0.937500000
     0.687500000     0.750000000     0.937500000
     0.625000000     0.937500000     0.062500000
     0.687500000     0.875000000     0.062500000
     0.687500000     0.937500000     0.000000000
     0.625000000     0.875000000     0.125000000
     0.625000000     0.937500000     0.187500000
     0.687500000     0.875000000     0.187500000
     0.687500000     0.937500000     0.125000000
     0.687500000     0.875000000     0.312500000
     0.687500000     0.937500000     0.250000000
     0.625000000     0.875000000     0.375000000
     0.625000000     0.937500000     0.437500000
     0.687500000     0.875000000     0.437500000
     0.687500000     0.937500000     0.375000000
     0.625000000     0.937500000     0.562500000
     0.625000000     0.875000000     0.625000000
     0.625000000     0.937500000     0.687500000
     0.687500000     0.875000000     0.687500000
     0.687500000     0.937500000     0.625000000
     0.625000000     0.875000000     0.750000000
     0.625000000     0.937500000     0.812500000
     0.687500000     0.875000000     0.812500000
     0.687500000     0.937500000     0.750000000
     0.625000000     0.875000000     0.875000000
     0.625000000     0.937500000     0.937500000
     0.687500000     0.875000000     0.937500000
     0.687500000     0.937500000     0.875000000
     0.812500000     0.062500000     0.000000000
     0.812500000     0.000000000     0.187500000
     0.812500000     0.062500000     0.125000000
     0.750000000     0.000000000     0.250000000
     0.750000000     0.062500000     0.312500000
     0.812500000     0.000000000     0.312500000
     0.812500000     0.062500000     0.250000000
     0.750000000     0.062500000     0.437500000
     0.812500000     0.000000000     0.437500000
     0.812500000     0.062500000     0.375000000
     0.750000000     0.062500000     0.562500000
     0.812500000     0.000000000     0.562500000
     0.812500000     0.062500000     0.500000000
     0.750000000     0.000000000     0.625000000
     0.750000000     0.062500000     0.687500000
     0.812500000     0.000000000     0.687500000
     0.750000000     0.000000000     0.750000000
     0.750000000     0.062500000     0.812500000
     0.812500000     0.000000000     0.812500000
     0.812500000     0.062500000     0.750000000
     0.812500000     0.000000000     0.937500000
     0.812500000     0.062500000     0.875000000
     0.750000000     0.125000000     0.000000000
     0.750000000     0.125000000     0.125000000
     0.750000000     0.187500000     0.187500000
     0.812500000     0.125000000     0.187500000
     0.812500000     0.187500000     0.125000000
     0.750000000     0.187500000     0.312500000
     0.812500000     0.125000000     0.312500000
     0.812500000     0.187500000     0.250000000
     0.750000000     0.125000000     0.375000000
     0.812500000     0.187500000     0.375000000
     0.750000000     0.125000000     0.500000000
     0.750000000     0.187500000     0.562500000
     0.812500000     0.187500000     0.500000000
     0.750000000     0.125000000     0.625000000
     0.750000000     0.187500000     0.687500000
     0.812500000     0.187500000     0.625000000
     0.750000000     0.125000000     0.750000000
     0.750000000     0.187500000     0.812500000
     0.812500000     0.125000000     0.812500000
     0.750000000     0.125000000     0.875000000
     0.750000000     0.187500000     0.937500000
     0.812500000     0.125000000     0.937500000
     0.812500000     0.187500000     0.875000000
     0.750000000     0.250000000     0.000000000
     0.750000000     0.312500000     0.062500000
     0.812500000     0.250000000     0.062500000
     0.750000000     0.312500000     0.187500000
     0.812500000     0.312500000     0.125000000
     0.750000000     0.250000000     0.250000000
     0.750000000     0.312500000     0.312500000
     0.812500000     0.250000000     0.312500000
     0.750000000     0.250000000     0.375000000
     0.750000000     0.312500000     0.437500000
     0.812500000     0.312500000     0.375000000
     0.750000000     0.250000000     0.500000000
     0.750000000     0.312500000     0.562500000
     0.812500000     0.250000000     0.562500000
     0.750000000     0.250000000     0.625000000
     0.750000000     0.312500000     0.687500000
     0.812500000     0.250000000     0.687500000
     0.812500000     0.312500000     0.625000000
     0.750000000     0.250000000     0.750000000
     0.750000000     0.312500000     0.812500000
     0.812500000     0.250000000     0.812500000
     0.750000000     0.250000000     0.875000000
     0.812500000     0.312500000     0.875000000
     0.750000000     0.375000000     0.000000000
     0.750000000     0.437500000     0.062500000
     0.812500000     0.437500000     0.000000000
     0.750000000     0.375000000     0.125000000
     0.750000000     0.437500000     0.187500000
     0.812500000     0.375000000     0.187500000
     0.812500000     0.437500000     0.125000000
     0.750000000     0.375000000     0.250000000
     0.750000000     0.437500000     0.312500000
     0.812500000     0.375000000     0.312500000
     0.812500000     0.437500000     0.250000000
     0.750000000     0.375000000     0.375000000
     0.812500000     0.375000000     0.437500000
     0.812500000     0.437500000     0.375000000
     0.812500000     0.375000000     0.562500000
     0.750000000     0.375000000     0.625000000
     0.812500000     0.375000000     0.687500000
     0.812500000     0.437500000     0.625000000
     0.750000000     0.375000000     0.750000000
     0.750000000     0.437500000     0.812500000
     0.812500000     0.375000000     0.812500000
     0.812500000     0.375000000     0.937500000
     0.812500000     0.437500000     0.875000000
     0.750000000     0.500000000     0.000000000
     0.812500000     0.500000000     0.062500000
     0.812500000     0.562500000     0.000000000
     0.750000000     0.500000000     0.125000000
     0.750000000     0.500000000     0.250000000
     0.812500000     0.500000000     0.312500000
     0.812500000     0.562500000     0.250000000
     0.750000000     0.500000000     0.375000000
     0.750000000     0.562500000     0.437500000
     0.812500000     0.500000000     0.437500000
     0.812500000     0.562500000     0.375000000
     0.750000000     0.500000000     0.500000000
     0.750000000     0.562500000     0.562500000
     0.812500000     0.500000000     0.562500000
     0.812500000     0.562500000     0.500000000
     0.750000000     0.500000000     0.625000000
     0.750000000     0.562500000     0.687500000
     0.812500000     0.500000000     0.687500000
     0.812500000     0.562500000     0.625000000
     0.750000000     0.500000000     0.750000000
     0.750000000     0.562500000     0.812500000
     0.812500000     0.562500000     0.750000000
     0.812500000     0.562500000     0.875000000
     0.750000000     0.687500000     0.062500000
     0.812500000     0.687500000     0.000000000
     0.750000000     0.687500000     0.187500000
     0.812500000     0.687500000     0.125000000
     0.750000000     0.625000000     0.250000000
     0.750000000     0.687500000     0.312500000
     0.812500000     0.625000000     0.312500000
     0.812500000     0.687500000     0.250000000
     0.750000000     0.625000000     0.375000000
     0.750000000     0.687500000     0.437500000
     0.812500000     0.687500000     0.375000000
     0.750000000     0.625000000     0.500000000
     0.750000000     0.687500000     0.562500000
     0.812500000     0.625000000     0.562500000
     0.812500000     0.687500000     0.500000000
     0.750000000     0.625000000     0.625000000
     0.750000000     0.687500000     0.687500000
     0.812500000     0.687500000     0.625000000
     0.750000000     0.625000000     0.750000000
     0.750000000     0.687500000     0.812500000
     0.812500000     0.625000000     0.812500000
     0.812500000     0.687500000     0.750000000
     0.750000000     0.812500000     0.062500000
     0.812500000     0.750000000     0.062500000
     0.750000000     0.750000000     0.125000000
     0.750000000     0.812500000     0.187500000
     0.812500000     0.812500000     0.125000000
     0.750000000     0.750000000     0.250000000
     0.812500000     0.750000000     0.312500000
     0.812500000     0.812500000     0.250000000
     0.750000000     0.750000000     0.375000000
     0.750000000     0.812500000     0.437500000
     0.812500000     0.750000000     0.437500000
     0.812500000     0.812500000     0.375000000
     0.750000000     0.750000000     0.500000000
     0.812500000     0.750000000     0.562500000
     0.750000000     0.750000000     0.625000000
     0.750000000     0.750000000     0.750000000
     0.812500000     0.750000000     0.812500000
     0.750000000     0.750000000     0.875000000
     0.750000000     0.812500000     0.937500000
     0.812500000     0.750000000     0.937500000
     0.812500000     0.812500000     0.875000000
     0.812500000     0.875000000     0.062500000
     0.750000000     0.875000000     0.125000000
     0.812500000     0.875000000     0.187500000
     0.750000000     0.875000000     0.250000000
     0.750000000     0.937500000     0.312500000
     0.812500000     0.875000000     0.312500000
     0.812500000     0.937500000     0.250000000
     0.812500000     0.875000000     0.437500000
     0.812500000     0.937500000     0.375000000
     0.750000000     0.875000000     0.500000000
     0.750000000     0.937500000     0.562500000
     0.812500000     0.875000000     0.562500000
     0.750000000     0.875000000     0.625000000
     0.812500000     0.937500000     0.625000000
     0.750000000     0.875000000     0.750000000
     0.750000000     0.937500000     0.812500000
     0.812500000     0.875000000     0.812500000
     0.812500000     0.937500000     0.750000000
     0.750000000     0.937500000     0.937500000
     0.937500000     0.000000000     0.062500000
     0.875000000     0.000000000     0.125000000
     0.875000000     0.062500000     0.187500000
     0.937500000     0.062500000     0.125000000
     0.937500000     0.062500000     0.250000000
     0.875000000     0.000000000     0.375000000
     0.875000000     0.062500000     0.437500000
     0.937500000     0.000000000     0.437500000
     0.937500000     0.062500000     0.375000000
     0.875000000     0.062500000     0.562500000
     0.937500000     0.000000000     0.562500000
     0.937500000     0.062500000     0.500000000
     0.875000000     0.000000000     0.625000000
     0.937500000     0.000000000     0.687500000
     0.875000000     0.000000000     0.750000000
     0.937500000     0.000000000     0.812500000
     0.875000000     0.062500000     0.937500000
     0.937500000     0.000000000     0.937500000
     0.937500000     0.062500000     0.875000000
     0.875000000     0.187500000     0.062500000
     0.937500000     0.125000000     0.062500000
     0.937500000     0.187500000     0.000000000
     0.875000000     0.125000000     0.125000000
     0.937500000     0.125000000     0.187500000
     0.875000000     0.125000000     0.250000000
     0.875000000     0.187500000     0.312500000
     0.937500000     0.125000000     0.312500000
     0.937500000     0.187500000     0.250000000
     0.875000000     0.125000000     0.375000000
     0.937500000     0.125000000     0.437500000
     0.875000000     0.125000000     0.500000000
     0.875000000     0.187500000     0.562500000
     0.937500000     0.125000000     0.562500000
     0.937500000     0.187500000     0.500000000
     0.937500000     0.125000000     0.687500000
     0.875000000     0.125000000     0.750000000
     0.875000000     0.187500000     0.812500000
     0.937500000     0.125000000     0.812500000
     0.937500000     0.187500000     0.750000000
     0.875000000     0.125000000     0.875000000
     0.937500000     0.125000000     0.937500000
     0.937500000     0.187500000     0.875000000
     0.875000000     0.250000000     0.000000000
     0.875000000     0.312500000     0.062500000
     0.937500000     0.250000000     0.062500000
     0.937500000     0.312500000     0.000000000
     0.875000000     0.250000000     0.125000000
     0.875000000     0.312500000     0.312500000
     0.875000000     0.250000000     0.375000000
     0.875000000     0.312500000     0.437500000
     0.875000000     0.250000000     0.500000000
     0.937500000     0.312500000     0.500000000
     0.875000000     0.250000000     0.625000000
     0.875000000     0.312500000     0.687500000
     0.937500000     0.250000000     0.687500000
     0.937500000     0.312500000     0.625000000
     0.875000000     0.250000000     0.750000000
     0.875000000     0.312500000     0.812500000
     0.937500000     0.312500000     0.750000000
     0.875000000     0.250000000     0.875000000
     0.875000000     0.312500000     0.937500000
     0.937500000     0.250000000     0.937500000
     0.875000000     0.375000000     0.000000000
     0.875000000     0.437500000     0.062500000
     0.937500000     0.375000000     0.062500000
     0.937500000     0.437500000     0.000000000
     0.875000000     0.375000000     0.125000000
     0.875000000     0.437500000     0.187500000
     0.937500000     0.375000000     0.187500000
     0.937500000     0.437500000     0.125000000
     0.937500000     0.375000000     0.312500000
     0.875000000     0.437500000     0.437500000
     0.937500000     0.437500000     0.375000000
     0.875000000     0.375000000     0.500000000
     0.875000000     0.437500000     0.562500000
     0.937500000     0.437500000     0.500000000
     0.875000000     0.375000000     0.625000000
     0.875000000     0.437500000     0.687500000
     0.937500000     0.375000000     0.687500000
     0.875000000     0.375000000     0.750000000
     0.875000000     0.437500000     0.812500000
     0.937500000     0.437500000     0.750000000
     0.875000000     0.375000000     0.875000000
     0.937500000     0.437500000     0.875000000
     0.937500000     0.500000000     0.062500000
     0.937500000     0.562500000     0.000000000
     0.875000000     0.500000000     0.125000000
     0.875000000     0.562500000     0.187500000
     0.937500000     0.500000000     0.187500000
     0.937500000     0.562500000     0.125000000
     0.875000000     0.500000000     0.250000000
     0.937500000     0.500000000     0.312500000
     0.875000000     0.500000000     0.375000000
     0.875000000     0.562500000     0.437500000
     0.937500000     0.500000000     0.437500000
     0.937500000     0.562500000     0.375000000
     0.875000000     0.500000000     0.500000000
     0.875000000     0.562500000     0.562500000
     0.937500000     0.500000000     0.562500000
     0.937500000     0.500000000     0.687500000
     0.937500000     0.562500000     0.625000000
     0.875000000     0.500000000     0.750000000
     0.875000000     0.562500000     0.812500000
     0.937500000     0.500000000     0.812500000
     0.937500000     0.562500000     0.750000000
     0.875000000     0.500000000     0.875000000
     0.875000000     0.562500000     0.937500000
     0.937500000     0.500000000     0.937500000
     0.937500000     0.562500000     0.875000000
     0.875000000     0.625000000     0.000000000
     0.875000000     0.687500000     0.062500000
     0.937500000     0.625000000     0.062500000
     0.875000000     0.687500000     0.187500000
     0.937500000     0.687500000     0.125000000
     0.875000000     0.625000000     0.250000000
     0.875000000     0.687500000     0.312500000
     0.937500000     0.625000000     0.312500000
     0.937500000     0.687500000     0.250000000
     0.875000000     0.625000000     0.375000000
     0.875000000     0.687500000     0.437500000
     0.937500000     0.625000000     0.437500000
     0.937500000     0.687500000     0.375000000
     0.875000000     0.625000000     0.500000000
     0.875000000     0.687500000     0.562500000
     0.937500000     0.625000000     0.562500000
     0.937500000     0.687500000     0.500000000
     0.875000000     0.625000000     0.625000000
     0.875000000     0.687500000     0.687500000
     0.875000000     0.625000000     0.750000000
     0.937500000     0.625000000     0.812500000
     0.937500000     0.687500000     0.750000000
     0.875000000     0.625000000     0.875000000
     0.875000000     0.687500000     0.937500000
     0.937500000     0.625000000     0.937500000
     0.937500000     0.687500000     0.875000000
     0.875000000     0.812500000     0.062500000
     0.937500000     0.750000000     0.062500000
     0.875000000     0.750000000     0.125000000
     0.875000000     0.812500000     0.187500000
     0.937500000     0.750000000     0.187500000
     0.937500000     0.812500000     0.125000000
     0.875000000     0.750000000     0.250000000
     0.875000000     0.812500000     0.312500000
     0.937500000     0.812500000     0.250000000
     0.875000000     0.750000000     0.375000000
     0.875000000     0.812500000     0.437500000
     0.937500000     0.750000000     0.437500000
     0.937500000     0.812500000     0.375000000
     0.875000000     0.750000000     0.500000000
     0.875000000     0.812500000     0.562500000
     0.937500000     0.750000000     0.562500000
     0.937500000     0.812500000     0.500000000
     0.875000000     0.750000000     0.625000000
     0.937500000     0.750000000     0.687500000
     0.937500000     0.812500000     0.625000000
     0.875000000     0.750000000     0.750000000
     0.875000000     0.812500000     0.812500000
     0.937500000     0.750000000     0.812500000
     0.875000000     0.750000000     0.875000000
     0.875000000     0.812500000     0.937500000
     0.937500000     0.750000000     0.937500000
     0.937500000     0.812500000     0.875000000
     0.875000000     0.875000000     0.000000000
     0.875000000     0.937500000     0.062500000
     0.937500000     0.875000000     0.062500000
     0.937500000     0.937500000     0.000000000
     0.875000000     0.875000000     0.125000000
     0.937500000     0.875000000     0.187500000
     0.875000000     0.875000000     0.250000000
     0.937500000     0.875000000     0.312500000
     0.937500000     0.937500000     0.250000000
     0.875000000     0.875000000     0.375000000
     0.875000000     0.937500000     0.437500000
     0.937500000     0.875000000     0.437500000
     0.937500000     0.937500000     0.375000000
     0.875000000     0.875000000     0.500000000
     0.937500000     0.875000000     0.562500000
     0.937500000     0.937500000     0.500000000
     0.875000000     0.875000000     0.625000000
     0.875000000     0.937500000     0.687500000
     0.937500000     0.875000000     0.687500000
     0.937500000     0.937500000     0.625000000
     0.875000000     0.875000000     0.750000000
     0.875000000     0.937500000     0.812500000
     0.937500000     0.875000000     0.812500000
     0.937500000     0.937500000     0.750000000
     0.875000000     0.875000000     0.875000000
     0.875000000     0.937500000     0.937500000
     0.937500000     0.875000000     0.937500000
     0.937500000     0.937500000     0.875000000